47
Coordinates from ORCA-job aiida
C     -4.95413   -1.46629   -0.05635
O     -3.80549   -0.78060    0.42793
H     -4.86532   -1.68238   -1.13206
H     -5.02705   -2.40725    0.49445
H     -5.86998   -0.87803    0.11043
C     -3.62571    0.47154   -0.22510
C     -2.36688    1.12341    0.28507
H     -3.55931    0.32902   -1.31713
H     -4.48172    1.13712   -0.01976
O     -1.23642    0.40214   -0.19429
H     -2.37314    1.13874    1.38789
H     -2.33483    2.16749   -0.07069
C     -0.01252    0.93703    0.29909
C      1.13555    0.10873   -0.21562
H     -0.01110    0.93671    1.40205
H      0.11737    1.97848   -0.04214
O      1.11577   -1.16747    0.41477
H      1.05776   -0.00302   -1.31049
H      2.08136    0.63220    0.00687
C      2.15871   -2.00747   -0.06670
H      3.14842   -1.56848    0.13453
H      2.07532   -2.96177    0.45916
H      2.06252   -2.18084   -1.14936
Na    -1.65583   -3.06949   -0.20695
C     -2.17704   -4.41715   -3.99913
O     -2.17996   -5.25971   -2.85276
H     -3.02456   -3.71496   -3.97989
H     -1.24179   -3.85216   -3.98470
H     -2.22885   -5.00659   -4.92784
C     -3.36183   -6.05029   -2.78361
C     -3.33580   -6.87633   -1.52391
H     -4.25656   -5.40481   -2.79152
H     -3.42185   -6.72655   -3.65366
O     -3.51368   -6.02259   -0.39811
H     -2.37661   -7.41563   -1.44907
H     -4.14551   -7.62463   -1.56964
C     -3.44376   -6.73753    0.83130
C     -3.60340   -5.77300    1.97728
H     -2.47771   -7.26320    0.91457
H     -4.24818   -7.49121    0.88423
O     -2.44412   -4.95172    2.06699
H     -4.50244   -5.15209    1.82404
H     -3.74068   -6.34656    2.91015
C     -2.55978   -3.99194    3.11130
H     -2.67949   -4.48145    4.09047
H     -1.63912   -3.40325    3.11410
H     -3.41726   -3.32254    2.94366
