96

B         10.10973       10.03250        9.84970
O         10.50940       10.55604       11.19199
O         10.64400       10.98236        8.85299
O         10.62685        8.68225        9.58098
O          8.63285        9.90935        9.84669
C         10.18710        9.89873       12.35491
C         10.11893       12.21095        8.61546
C         11.65169        8.23341        8.83305
C          8.03040        9.13136        8.91033
C          9.46116       10.58866       13.33719
C         10.64280        8.59876       12.62770
C          9.20928       12.86404        9.46991
C         10.54242       12.87323        7.44755
C         12.88552        8.89301        8.68901
C         11.48287        6.97972        8.21198
C          6.88737        8.40735        9.28890
C          8.50109        9.00905        7.58833
C          9.22752       10.00473       14.58428
C         10.39892        8.01930       13.87492
C          8.73815       14.13957        9.14826
C         10.06558       14.14659        7.13835
C         13.92946        8.28618        7.98630
C         12.52882        6.38398        7.51052
C          6.26568        7.54035        8.38924
C          7.87624        8.13493        6.69815
C          9.15571       14.79041        7.98410
C          9.70151        8.71963       14.86375
C         13.76688        7.02755        7.40125
C          6.76339        7.38489        7.09145
H          9.09636       11.59509       13.11351
H         11.19856        8.05957       11.85823
H          8.88646       12.37096       10.38805
H         11.25635       12.36673        6.79159
H         13.03148        9.87852        9.13206
H         10.50763        6.49185        8.29843
H          6.51873        8.51138       10.31342
H          9.38003        9.57935        7.27784
H         14.59401        6.55276        6.86702
H          8.77752       15.78643        7.73837
H          9.53386        8.26910       15.84609
H          6.29267        6.68388        6.39689
H          8.67398       10.56263       15.34572
H         10.77387        7.01162       14.07946
H          8.03235       14.63148        9.82523
H         10.40753       14.64014        6.22339
H          8.27477        8.03137        5.68372
H          5.39383        6.96481        8.71494
H         14.88855        8.80719        7.90576
H         12.37517        5.40547        7.04486
H         -0.36039        5.10135       12.53795
H          1.02791        7.11645       12.40775
H          1.95031        6.30835       11.11045
H          0.64431        4.29695       11.29545
C          0.55551        4.51305       12.37125
C          1.88391        6.45085       12.20245
H          2.48501        2.26435        8.44765
H          3.28071        0.97275        7.49975
H          3.17481        8.14685       12.35685
H          1.25301        0.57455        9.63605
C          3.33261        1.56215        8.42845
O          1.70411        5.19875       12.85545
H          0.48251        3.57215       12.92205
C          3.14271        7.10275       12.71265
H          2.08771       -0.74715        8.77385
C          2.14781       -0.07095        9.64395
H          4.26781        2.12715        8.44285
O          3.32961        0.71965        9.57475
O          4.27321        6.38145       12.23325
H          3.13651        7.11805       13.81545
H          1.36411       -1.64525       10.85795
C          2.17381       -0.89695       10.90365
H          5.62701        7.95785       12.38545
Na         3.85381        2.90985       12.22055
C          5.49711        6.91635       12.72665
O          1.99591       -0.04325       12.02945
H          6.56741        5.97635       11.11705
H          1.00721        0.82725       14.25155
C          6.64521        6.08805       12.21195
H          3.13301       -1.43625       10.97845
H          5.49851        6.91605       13.82965
C          2.06581       -0.75815       13.25885
H          1.26141       -1.51185       13.31175
C          1.90621        0.20635       14.40485
H          2.09231        2.65685       15.37125
H          7.59101        6.61155       12.43445
O          6.62541        4.81185       12.84235
O          3.06551        1.02765       14.49455
C          2.94981        1.98745       15.53885
H          7.57211        3.79855       11.27815
H          1.76891       -0.36725       15.33765
H          3.03191       -1.28385       13.34215
C          7.66831        3.97185       12.36085
H          3.87051        2.57615       15.54165
H          2.83011        1.49795       16.51805
H          8.65801        4.41085       12.56205
H          7.58491        3.01755       12.88675
