46

B         10.10185       10.03015        9.77261
O         10.29440       10.38878       11.21573
O         10.71394       11.17663        9.06695
O         10.86179        8.79688        9.50614
O          8.66191        9.88406        9.49870
C          9.78990        9.63511       12.27059
C          9.98531       12.25096        8.56884
C         11.73991        8.58361        8.45742
C          8.14066        8.87478        8.70247
C          9.56048       10.61662       13.44358
C         10.77039        8.48176       12.66397
C          9.53182       13.22674        9.69308
C         10.88959       12.93652        7.51822
C         13.21043        8.91954        8.83707
C         11.62316        7.09354        8.03967
C          6.74395        8.45660        9.23203
C          8.06128        9.31727        7.21740
H          8.81349        9.16719       12.04467
H          9.05727       11.95178        8.04650
H         11.52341        9.19073        7.55912
H          8.75452        7.95467        8.71363
F          8.94310       10.04155       14.50501
F         10.74524       11.14273       13.88395
F          8.78842       11.65551       13.04285
F         10.49805        7.35947       11.95137
F         12.06264        8.82943       12.41371
F         10.70039        8.13965       13.98128
F         10.53052       13.44009       10.60743
F          9.16022       14.44481        9.22254
F          8.47545       12.71626       10.36734
F         10.25497       13.93376        6.85104
F         12.01526       13.46511        8.07475
F         11.28519       12.02117        6.59463
F         14.00940        8.94055        7.73798
F         13.75151        8.05334        9.73016
F         13.28751       10.16187        9.40043
F         12.51391        6.75726        7.06887
F         11.81207        6.24713        9.08335
F         10.37831        6.83980        7.54172
F          5.74951        9.32438        8.89770
F          6.75590        8.36529       10.58605
F          6.39288        7.23530        8.74067
F          7.47104        8.38302        6.42707
F          7.38967       10.48816        7.05271
F          9.31971        9.52259        6.72898
Na        12.34762       11.70460       11.26478
