20
	Energy:     -12.4568706
C         -5.32484       -0.17888       -0.00324
C         -4.12463        0.75269       -0.04640
H         -5.22906       -0.98598       -0.73629
H         -6.24200        0.37565       -0.22593
H         -5.43358       -0.62670        0.98976
C         -2.80749       -0.01600        0.03449
H         -4.19639        1.47064        0.77964
H         -4.15237        1.33635       -0.97437
C         -1.61639        0.91437        0.03261
H         -2.72110       -0.68447       -0.82978
H         -2.77612       -0.61260        0.95264
O         -0.46521        0.18200        0.01825
C          0.72805        0.97548        0.02901
C          1.92466        0.04460        0.00306
H          0.75571        1.58545        0.93890
H          0.74816        1.62605       -0.85259
H          1.90242       -0.63797        0.85890
H          2.85923        0.61226        0.02797
H          1.91216       -0.57471       -0.89984
O         -1.66996        2.13514        0.04953
