69

B          3.37721        3.07213        0.22750
C          3.83871        4.66252        0.21723
C          2.52048        1.93671        1.03669
C          2.07157        3.27810       -0.74667
C          4.76218        2.29345       -0.12872
C          4.64536        5.05718       -0.80493
C          5.12491        6.44724       -0.95496
C          4.74725        7.37642       -0.08032
C          3.84371        7.01297        1.02127
C          3.41361        5.74908        1.16042
C          1.72237        2.18946        2.09640
C          0.89533        1.13214        2.72022
C          0.90712       -0.11155        2.22953
C          1.74625       -0.42929        1.06910
C          2.50062        0.52250        0.51026
C          1.05817        4.08992       -0.32231
C         -0.18784        4.27952       -1.08318
C         -0.36695        3.62778       -2.23194
C          0.69308        2.73446       -2.72824
C          1.82913        2.57449       -2.04248
C          5.10035        1.54716       -1.20022
C          6.44520        0.93514       -1.31975
C          7.36037        1.12271       -0.36790
C          7.03323        1.93796        0.80887
C          5.81330        2.48159        0.92177
H          4.99050        4.37866       -1.57309
H          5.78135        6.70444       -1.77555
H          5.09362        8.40204       -0.18386
H          3.51867        7.77350        1.71341
H          2.73446        5.56742        1.97650
H          1.61369        3.17889        2.51746
H          0.26889        1.37030        3.56655
H          0.29188       -0.88279        2.68060
H          1.74500       -1.43627        0.66230
H          3.07360        0.22341       -0.34959
H          1.10354        4.62272        0.61817
H         -0.96442        4.93742       -0.70513
H         -1.28112        3.75060       -2.79280
H          0.53727        2.20215       -3.65963
H          2.53304        1.89633       -2.47483
H          4.44866        1.34668       -2.01873
H          6.68097        0.33781       -2.18673
H          8.34524        0.67774       -0.45683
H          7.77610        2.09547        1.57905
H          5.63140        3.07310        1.80651
H         -4.49642       -1.17591       -2.50769
H         -2.86714       -2.52668       -3.57583
H          1.54860       -1.87529       -2.87421
O         -0.38659       -1.82057       -3.50239
O         -3.79460        1.01157       -1.32673
H         -3.36902        2.22262        0.25263
Na        -0.39607        0.73575       -1.57146
C         -4.27910       -0.36350       -3.22140
C         -2.64553       -1.70401       -4.27621
C          1.00071       -1.80922       -3.81732
C         -3.93810        2.27055       -0.67907
H         -4.99398        2.48131       -0.44797
H          1.27255       -2.66572       -4.45392
C         -4.50176        0.97223       -2.56158
C         -1.19283       -1.74683       -4.67331
O         -2.93046       -0.44701       -3.67050
H         -5.58323        1.10941       -2.38924
H         -1.02252       -2.63053       -5.31203
H         -4.97475       -0.46174       -4.07254
H         -3.26729       -1.84552       -5.17686
H          1.28404       -0.88069       -4.33644
H         -3.54327        3.08667       -1.30325
H         -4.15761        1.78246       -3.22674
H         -0.93674       -0.84819       -5.25985
