24
Coordinates from ORCA-job aiida
C     -4.95413   -1.46629   -0.05635
O     -3.80549   -0.78060    0.42793
H     -4.86532   -1.68238   -1.13206
H     -5.02705   -2.40725    0.49445
H     -5.86998   -0.87803    0.11043
C     -3.62571    0.47154   -0.22510
C     -2.36688    1.12341    0.28507
H     -3.55931    0.32902   -1.31713
H     -4.48172    1.13712   -0.01976
O     -1.23642    0.40214   -0.19429
H     -2.37314    1.13874    1.38789
H     -2.33483    2.16749   -0.07069
C     -0.01252    0.93703    0.29909
C      1.13555    0.10873   -0.21562
H     -0.01110    0.93671    1.40205
H      0.11737    1.97848   -0.04214
O      1.11577   -1.16747    0.41477
H      1.05776   -0.00302   -1.31049
H      2.08136    0.63220    0.00687
C      2.15871   -2.00747   -0.06670
H      3.14842   -1.56848    0.13453
H      2.07532   -2.96177    0.45916
H      2.06252   -2.18084   -1.14936
Na    -1.65583   -3.06949   -0.20695
