23

C         -5.26082       -1.63335       -0.01895
O         -4.09602       -0.71112       -0.01380
H         -5.99596       -1.42584       -0.91570
H         -4.70619       -2.58816       -0.01903
H         -5.89357       -1.95178        0.87177
C         -3.65094        0.64211       -0.01122
C         -2.35340        0.91978        0.01300
H         -3.64237        1.54230       -0.88769
H         -4.17314        1.30154        0.86448
O         -1.19985        0.07716       -0.11784
H         -2.34839        1.53161        0.92300
H         -2.34477        1.59886       -0.84788
C          0.00548        0.83437        0.03272
C          1.21920        0.26347       -0.01157
H          0.04042        1.42427        0.95640
H          0.04914        1.53160       -0.81249
O          1.22113       -1.29453       -0.02608
H          1.51864        0.98754       -0.90526
H          1.85840        0.89960        0.87239
C          2.30569       -1.94961       -0.06750
H          3.04551       -2.80922        0.80228
H          1.66885       -2.74087       -0.08255
H          3.16213       -2.19070       -0.97594
