23
	Energy:      47.4678935
C         -5.96041        0.11926       -0.00577
O         -4.76552        0.88978       -0.00261
H         -6.00926       -0.51109       -0.89895
H         -6.81234        0.80441       -0.01459
H         -6.01830       -0.49869        0.89547
C         -3.60853        0.05479       -0.02102
C         -2.35340        0.91978        0.01300
H         -3.60776       -0.56441       -0.92615
H         -3.61656       -0.61915        0.84413
O         -1.20265        0.07529       -0.01790
H         -2.34839        1.53161        0.92300
H         -2.34477        1.59886       -0.84788
C          0.00548        0.83436        0.03272
C          1.19560       -0.11726       -0.01935
H          0.04042        1.42427        0.95640
H          0.04914        1.53160       -0.81249
O          2.40918        0.63073        0.04327
H          1.16196       -0.70148       -0.94688
H          1.14420       -0.82101        0.82015
C          3.54601       -0.22203       -0.00038
H          3.54317       -0.90852        0.85181
H          4.44456        0.39841        0.05405
H          3.56631       -0.78534       -0.93830
