23
Lattice="1.0 0.0 0.0 0.0 1.0 0.0 0.0 0.0 1.0" Properties=species:S:1:pos:R:3:masses:R:1 pbc="F F F"
C       -4.95413347      -1.46628919      -0.05635024      12.01100000
O       -3.80549025      -0.78059934       0.42792801      15.99900000
H       -4.86531967      -1.68238010      -1.13206195       1.00800000
H       -5.02705186      -2.40724592       0.49444919       1.00800000
H       -5.86997794      -0.87802679       0.11042795       1.00800000
C       -3.62570986       0.47154396      -0.22509896      12.01100000
C       -2.36688149       1.12340801       0.28507048      12.01100000
H       -3.55930898       0.32902382      -1.31713010       1.00800000
H       -4.48171989       1.13712036      -0.01976348       1.00800000
O       -1.23642251       0.40213717      -0.19428702      15.99900000
H       -2.37313933       1.13873711       1.38788501       1.00800000
H       -2.33483149       2.16749302      -0.07069248       1.00800000
C       -0.01252246       0.93703212       0.29908684      12.01100000
C        1.13554559       0.10873356      -0.21561718      12.01100000
H       -0.01110031       0.93671465       1.40204816       1.00800000
H        0.11737400       1.97848258      -0.04213511       1.00800000
O        1.11577452      -1.16747007       0.41476584      15.99900000
H        1.05776072      -0.00301655      -1.31048801       1.00800000
H        2.08135962       0.63220264       0.00686700       1.00800000
C        2.15871006      -2.00746826      -0.06669650      12.01100000
H        3.14841708      -1.56848425       0.13452805       1.00800000
H        2.07531612      -2.96177445       0.45916435       1.00800000
H        2.06252179      -2.18084408      -1.14935986       1.00800000
