22
	Energy:      20.5008144
C         -0.79478        1.26610        0.01756
C          0.60845        1.31299        0.03300
C          1.38868        0.13492        0.03255
C          0.74114       -1.11918        0.01617
C         -0.65944       -1.16463        0.00077
C         -1.41308        0.00749        0.00147
C         -1.70351        2.46329        0.01679
O          1.29433        2.49868        0.04927
C          2.89501        0.21464        0.04934
H         -1.17428       -2.12339       -0.01196
H         -2.49883       -0.06808       -0.01077
H          0.68104        3.24460        0.04818
H         -1.18182        3.42110        0.02962
H         -2.35067        2.43722        0.90038
H         -2.33148        2.45063       -0.88083
H          3.27331        1.24064        0.06111
H          3.30599       -0.26576       -0.84478
H          3.28675       -0.27919        0.94478
C          1.47554       -2.43322        0.01421
H          2.56207       -2.32246        0.02672
H          1.21541       -3.00278       -0.88443
H          1.19624       -3.01616        0.89840
