19
	Energy:      12.0544676
C         -0.78163        1.47561        0.02126
C          0.60997        1.56536        0.03533
C          1.40419        0.41612        0.03068
C          0.77186       -0.83807        0.01171
C         -0.62535       -0.94445       -0.00245
C         -1.39641        0.22288        0.00239
H         -1.40222        2.36606        0.02473
O          1.21273        2.79143        0.05396
C          2.90455        0.47191        0.04570
C         -1.29695       -2.28557       -0.02281
H         -2.48223        0.16099       -0.00850
H          0.52475        3.47600        0.05462
H         -0.56665       -3.10138       -0.02276
H         -1.91176       -2.38554       -0.92307
H         -1.93115       -2.40296        0.86176
H          3.28817        1.49621        0.05754
H          3.30569       -0.02084       -0.84614
H          3.28832       -0.03523        0.93710
H          1.38151       -1.73997        0.00806
