22
	Energy:      18.0231595
C         -0.75818        1.34441        0.01818
C          0.64385        1.40556        0.03300
C          1.41841        0.23386        0.03084
C          0.77525       -1.01354        0.01392
C         -0.61797       -1.10246       -0.00080
C         -1.37087        0.07698        0.00140
C         -1.67475        2.53581        0.01876
O          1.32885        2.58941        0.05009
C          2.92225        0.25794        0.04652
C         -1.30859       -2.43354       -0.01895
H         -2.45819        0.00927       -0.01020
H          0.71383        3.33417        0.05228
H         -1.15753        3.49616        0.03095
H         -2.32040        2.50571        0.90327
H         -2.30356        2.51952       -0.87816
H          3.33289        1.27141        0.05725
H          3.31206       -0.24558       -0.84446
H          3.29361       -0.25722        0.93871
H         -0.59015       -3.25983       -0.01737
H         -1.92467       -2.52632       -0.91912
H         -1.94457       -2.54035        0.86570
H          1.37519       -1.92172        0.01237
