19
	Energy:      15.8370055
C         -0.76986        1.32566        0.01736
C          0.63355        1.38576        0.03254
C          1.40909        0.21327        0.03016
C          0.76510       -1.03203        0.01334
C         -0.62368       -1.10916       -0.00116
C         -1.38241        0.05940        0.00085
C         -1.68549        2.51769        0.01762
O          1.31892        2.56945        0.05005
C          2.91270        0.23692        0.04599
H         -1.11509       -2.07829       -0.01412
H         -2.46795       -0.02081       -0.01083
H          0.70420        3.31448        0.05968
H         -1.16735        3.47760        0.02457
H         -2.32811        2.49069        0.90442
H         -2.31744        2.49929       -0.87707
H          3.32347        1.25035        0.05521
H          3.30255       -0.26799       -0.84419
H          3.28386       -0.27706        0.93895
H          1.35009       -1.94905        0.01162
