17
	Energy:       9.9126482
C         -0.80814        1.60236        0.02176
C          0.58162        1.63534        0.03068
C          1.32203        0.45774        0.02350
C          0.67448       -0.77998        0.00747
C         -0.72164       -0.81965       -0.00177
C         -1.45965        0.36939        0.00539
H         -1.39468        2.51530        0.02721
O          1.26293        2.81684        0.04679
H         -2.54611        0.33038       -0.00187
H          0.62130        3.54544        0.05086
O          1.50927       -1.86380        0.00209
C          0.89824       -3.14731       -0.00844
H          1.69527       -3.89710       -0.00877
H          0.30315       -3.29388       -0.91588
H          0.29396       -3.30448        0.89113
H          2.40745        0.50255        0.03062
H         -1.26652       -1.75759       -0.01471
