19
	Energy:      12.0170752
C         -0.67796        1.47041        0.02134
C          0.70776        1.53537        0.03623
C          1.47405        0.37543        0.03361
C          0.85987       -0.88819        0.01580
C         -0.54742       -0.96626        0.00062
C         -1.30087        0.22216        0.00360
H         -1.28644        2.36851        0.02319
O          1.36354        2.73098        0.05385
H          2.55781        0.46329        0.04559
C         -1.29908       -2.26962       -0.01901
H         -2.38818        0.17499       -0.00807
H          0.70359        3.44309        0.05351
C          1.72886       -2.11512        0.01363
H          2.79303       -1.85604        0.02667
H          1.54729       -2.70764       -0.88872
H          1.52922       -2.72360        0.90142
H         -0.64238       -3.14284       -0.01945
H         -1.92184       -2.32653       -0.91806
H         -1.94131       -2.34217        0.86509
