19
	Energy:      10.1169704
C         -0.70984        1.39758        0.02028
C          0.68055        1.46420        0.03532
C          1.45286        0.30801        0.03284
C          0.83372       -0.94602        0.01498
C         -0.56720       -1.01597       -0.00016
C         -1.34622        0.14994        0.00239
H         -1.30781        2.30391        0.02227
O          1.33291        2.66239        0.05299
H          2.53619        0.39294        0.04487
H         -1.05197       -1.99059       -0.01403
C         -2.84445        0.07454       -0.01393
H          0.67076        3.37239        0.05270
C          1.64667       -2.20633        0.01209
H         -3.19516       -0.96263       -0.02593
H         -3.23704        0.57192       -0.90664
H         -3.25578        0.55752        0.87826
H          2.72046       -1.99237        0.02415
H          1.43122       -2.79178       -0.88751
H          1.41410       -2.80687        0.89735
