13

C         -0.75027        1.17431        0.01735
C          0.64043        1.24753        0.03285
C          1.39928        0.07971        0.03225
C          0.76743       -1.16132        0.01614
C         -0.62327       -1.23454        0.00064
C         -1.38212       -0.06672        0.00124
H         -1.31258        2.03966        0.01780
O          1.10863        2.16713        0.04478
H          2.42979        0.13397        0.04373
H          1.32974       -2.02667        0.01570
H         -1.09147       -2.15414       -0.01130
H         -2.41263       -0.12097       -0.01024
H          0.59808        2.95283        0.04518
