138
UNNAMED
B            3.377000        3.072000        0.228000
C            3.839000        4.663000        0.217000
C            2.520000        1.937000        1.037000
C            2.072000        3.278000       -0.747000
N            3.656000        3.761000        2.539000
C            4.762000        2.293000       -0.129000
C            4.645000        5.057000       -0.805000
C            5.125000        6.447000       -0.955000
C            4.747000        7.376000       -0.080000
C            3.844000        7.013000        1.021000
C            3.414000        5.749000        1.160000
C            1.722000        2.189000        2.096000
C            0.895000        1.132000        2.720000
C            0.907000       -0.112000        2.230000
C            1.746000       -0.429000        1.069000
C            2.501000        0.522000        0.510000
C            1.058000        4.090000       -0.322000
C           -0.188000        4.280000       -1.083000
C           -0.367000        3.628000       -2.232000
C            0.693000        2.734000       -2.728000
C            1.829000        2.574000       -2.042000
C            5.100000        1.547000       -1.200000
C            6.445000        0.935000       -1.320000
C            7.360000        1.123000       -0.368000
C            7.033000        1.938000        0.809000
C            5.813000        2.482000        0.922000
H            4.990000        4.379000       -1.573000
H            5.781000        6.704000       -1.776000
H            5.094000        8.402000       -0.184000
H            3.519000        7.774000        1.713000
H            2.734000        5.567000        1.976000
H            1.614000        3.179000        2.517000
H            0.269000        1.370000        3.567000
H            0.292000       -0.883000        2.681000
H            1.745000       -1.436000        0.662000
H            3.074000        0.223000       -0.350000
H            1.104000        4.623000        0.618000
H           -0.964000        4.937000       -0.705000
H           -1.281000        3.751000       -2.793000
H            0.537000        2.202000       -3.660000
H            2.533000        1.896000       -2.475000
H            4.449000        1.347000       -2.019000
H            6.681000        0.338000       -2.187000
H            8.345000        0.678000       -0.457000
H            7.776000        2.095000        1.579000
H            5.631000        3.073000        1.807000
C           -3.006000       -6.129000        1.454000
O           -1.841000       -5.207000        1.459000
H           -3.741000       -5.922000        0.557000
H           -2.452000       -7.084000        1.454000
H           -3.639000       -6.448000        2.345000
C           -1.396000       -3.854000        1.462000
C           -0.099000       -3.576000        1.486000
H           -1.388000       -2.953000        0.585000
H           -1.918000       -3.194000        2.338000
O            1.055000       -4.419000        1.355000
H           -0.094000       -2.964000        2.396000
H           -0.090000       -2.897000        0.625000
C            2.260000       -3.661000        1.506000
C            3.474000       -4.232000        1.462000
H            2.295000       -3.071000        2.430000
H            2.304000       -2.964000        0.661000
O            3.476000       -5.790000        1.447000
H            3.773000       -3.508000        0.568000
H            4.113000       -3.596000        2.345000
C            4.560000       -6.445000        1.406000
H            5.300000       -7.305000        2.275000
H            3.924000       -7.237000        1.391000
H            5.417000       -6.686000        0.497000
C           13.736000        0.030000       -4.097000
O           12.547000       -0.216000       -3.241000
H           14.719000        0.192000       -3.468000
H           13.670000       -0.876000       -4.724000
H           13.802000        0.708000       -5.009000
C           11.735000        0.256000       -2.170000
C           10.668000       -0.433000       -1.786000
H           11.912000        0.327000       -0.928000
H           11.378000        1.406000       -2.329000
O           10.197000       -1.737000       -2.154000
H            9.921000        0.358000       -1.924000
H           10.915000       -0.479000       -0.718000
C            8.953000       -2.032000       -1.509000
C            8.291000       -3.179000       -1.723000
H            8.185000       -1.266000       -1.668000
H            9.159000       -2.083000       -0.433000
O            8.855000       -4.069000       -2.872000
H            8.327000       -3.409000       -0.558000
H            7.085000       -2.807000       -1.731000
C            8.316000       -5.177000       -3.169000
H            7.579000       -5.724000       -4.265000
H            9.076000       -5.210000       -3.843000
H            8.296000       -6.327000       -2.628000
C           -4.885000        6.575000        2.825000
O           -4.452000        6.180000        1.460000
H           -4.259000        7.476000        3.253000
H           -5.954000        6.748000        2.607000
H           -5.131000        5.887000        3.697000
C           -3.371000        5.771000        0.627000
C           -3.577000        5.507000       -0.657000
H           -2.376000        6.377000        0.156000
H           -2.757000        4.831000        1.091000
O           -4.728000        5.698000       -1.492000
H           -3.200000        4.477000       -0.660000
H           -2.789000        6.155000       -1.057000
C           -4.489000        5.201000       -2.813000
C           -5.429000        5.232000       -3.770000
H           -4.144000        4.160000       -2.834000
H           -3.699000        5.825000       -3.247000
O           -6.852000        5.647000       -3.291000
H           -4.694000        5.862000       -4.460000
H           -5.246000        4.138000       -4.374000
C           -7.825000        5.713000       -4.101000
H           -9.043000        5.005000       -4.337000
H           -8.322000        6.014000       -3.268000
H           -8.166000        6.533000       -5.011000
C            6.104000       17.412000        2.097000
O            5.886000       15.982000        1.757000
H            6.887000       17.555000        2.965000
H            6.379000       17.774000        1.091000
H            5.312000       18.221000        2.218000
C            5.533000       14.687000        2.234000
C            5.475000       13.659000        1.397000
H            6.133000       13.843000        2.944000
H            4.496000       14.692000        2.865000
O            5.865000       13.531000        0.022000
H            4.435000       13.370000        1.586000
H            6.121000       12.983000        1.970000
C            5.554000       12.226000       -0.477000
C            5.789000       11.873000       -1.751000
H            4.507000       11.937000       -0.327000
H            6.180000       11.517000        0.076000
O            6.223000       13.035000       -2.694000
H            6.463000       10.972000       -1.368000
H            4.786000       11.158000       -2.031000
C            6.474000       12.827000       -3.919000
H            5.892000       13.164000       -5.180000
H            6.682000       13.821000       -3.905000
H            7.440000       12.291000       -4.548000
