13
	Energy:      55.1989945
C         -1.30498        0.85819        0.01154
C          0.02923        0.97630        0.00896
C          0.59169        2.36430        0.01537
H          0.69001        0.11659        0.00257
C         -2.10249        2.12581        0.02057
H         -1.80449       -0.10422        0.00739
S         -0.85908        3.41652        0.02866
H         -2.71250        2.21090        0.92207
H         -2.71330        2.22287       -0.87921
H          1.17250        2.56685       -0.88670
H          1.18072        2.55553        0.91456
O         -0.92518        4.13586       -1.22990
O         -0.91828        4.11309        1.30030
