74
Properties=species:S:1:pos:R:3:forces:R:3 energy=-362.2797729875853 dipole="-0.11049743509483004 -0.25818178029796285 0.1843769612093067" free_energy=-362.2797729875853 pbc="F F F"
B        0.26699094       0.58015051       0.07726524      -0.01757928       0.09012605      -0.02142832
C       -1.51970172      -2.47355858       1.98507768      -0.08750039       0.00288414       0.00883228
C       -0.21194564      -2.10897806       1.49325020      -0.04061833       0.00097264       0.02381344
C        0.86392609      -3.03408295       1.71982852       0.00973511       0.06443558       0.01508902
C        0.62783203      -4.18841069       2.44017726       0.07859667       0.03203365      -0.07378463
C       -0.62780028      -4.51678705       2.93720737       0.05143223       0.06461231      -0.04320234
C       -1.70003968      -3.67548787       2.66838320       0.00677820       0.05947901       0.05953858
H       -2.49924386      -1.76368101       1.86293776       0.00653949      -0.00342746      -0.02506695
O        0.22250430      -0.76322705       1.00941808       0.11154988      -0.06541467      -0.04871397
C        2.25410108      -2.69648737       1.31324935      -0.02838526      -0.00897725      -0.00824359
C       -0.79981316      -5.70697662       3.80670480      -0.00826041      -0.02755566      -0.01457255
H       -2.67597598      -3.94613841       3.03100555      -0.01478527       0.02159997       0.03107325
H        0.15141856      -6.21315742       3.97201222       0.01151017      -0.05539007       0.00296146
H       -1.48927730      -6.41838631       3.35583513      -0.06101258      -0.07026370      -0.00682959
H       -1.18963667      -5.41481020       4.78212773      -0.04228536      -0.02496283       0.02879674
H        2.28430829      -1.79276960       0.69902263      -0.02939668      -0.04944900       0.02481745
H        2.69271816      -3.51664224       0.74143384       0.02043992       0.05632858      -0.03019840
H        2.87766945      -2.53514474       2.19631403      -0.00186402       0.04610556      -0.07564350
H        1.46266112      -4.83451159       2.64373584      -0.01591663      -0.06372948       0.04483503
C        1.97672310      -0.38409749      -3.06856675       0.02275348      -0.04628642      -0.02808163
C        2.00538196       0.49110279      -1.98763369       0.04075192      -0.05583205       0.03390058
C        3.23679310       0.82957910      -1.39962348      -0.04504915       0.07983157       0.07681069
C        4.40342564       0.34596463      -1.97204220      -0.10017238       0.00955569       0.10477930
C        4.37333231      -0.48129039      -3.09641628       0.10299432       0.13635409       0.03961475
C        3.13926505      -0.86122538      -3.61275665       0.12393689      -0.02834821      -0.03215688
H        1.01416558      -0.66986004      -3.44799382      -0.05046373      -0.05391941      -0.10680962
O        0.77757337       0.95892675      -1.52550672       0.04175264       0.08985951       0.12760932
C        3.22612332       1.66159551      -0.16285663       0.01375697      -0.00589346      -0.00599863
C        5.63518608      -0.92177751      -3.76269229      -0.00832341      -0.02970767       0.04210090
H        3.10704773      -1.53622830      -4.44855981       0.00083417      -0.01735822      -0.07842700
H        6.51568981      -0.45851556      -3.31046634      -0.06774695       0.00695282      -0.01888187
H        5.62727522      -0.66284061      -4.82474365       0.00038669       0.00681400       0.06913816
H        5.75925273      -2.00188623      -3.68657331      -0.01960849      -0.03969045       0.01235969
H        2.22377325       1.66992202       0.27329509       0.09439869      -0.00622027       0.01698212
H        3.49237523       2.70298965      -0.36071930       0.05783748      -0.10495388      -0.07094231
H        3.91344951       1.25802278       0.58456028      -0.02935297       0.05137836      -0.02931897
H        5.35042928       0.58797736      -1.51876728      -0.06185506       0.03661420      -0.06179630
C       -2.18383988       1.19053832      -1.56550274      -0.08860941       0.01732568       0.00291479
C       -1.58837283      -0.08373338      -1.76348103      -0.05096873      -0.05037901      -0.00131939
C       -2.33244369      -1.12022706      -2.41190677      -0.02009101      -0.07929160      -0.01361784
C       -3.55042218      -0.78043609      -3.01242386       0.06789258      -0.01784779       0.03189361
C       -4.08807569       0.50622149      -2.89860723       0.02747931      -0.01069294      -0.10158705
C       -3.42359764       1.46338524      -2.12746776      -0.02689736      -0.05328403      -0.03372383
H       -1.62319396       1.93726653      -1.01203960      -0.02775032       0.05627735       0.00202826
O       -0.24112732      -0.36009278      -1.18965637       0.06738635      -0.05986579      -0.02290574
C       -1.71586195      -2.48319975      -2.53118676      -0.01087776      -0.03541276      -0.05297219
C       -5.31269197       0.89159487      -3.66526323      -0.01675871      -0.01665596       0.04611311
H       -3.86910473       2.43310950      -1.98221295       0.00061947      -0.01627895      -0.08431255
H       -5.64315239       0.09243996      -4.33204641       0.04713710       0.00227966       0.02538173
H       -5.12832808       1.77794466      -4.27687865       0.03133597      -0.05240907       0.01131992
H       -6.14289975       1.12663791      -3.00065555      -0.00879372      -0.01467548       0.09545172
H       -0.86211986      -2.60455126      -1.85824735      -0.06805652       0.08259792      -0.00085507
H       -1.34714280      -2.63659788      -3.54593860      -0.01848303      -0.05412100      -0.02650180
H       -2.43287849      -3.27311486      -2.29927558      -0.03470384       0.03652519      -0.02304132
H       -4.05134018      -1.52340669      -3.61264295      -0.01283171       0.10746146       0.09611012
C       -0.72716822       3.31913144       1.48074700       0.01040260       0.06408658       0.07232764
C       -0.33482318       2.04756370       1.90417193       0.00146247      -0.01313853      -0.01709162
C        0.58061259       1.91951238       2.96383139       0.08303510      -0.01521557      -0.05611766
C        0.97631864       3.06228575       3.62817340       0.01827944      -0.04955970       0.01744389
C        0.54290815       4.32747376       3.24606228       0.11391028      -0.03345812       0.07838166
C       -0.27390308       4.44266226       2.12664905      -0.02907780       0.01599136       0.10711997
H       -1.40685752       3.40196665       0.65282904      -0.00249544       0.01577341      -0.03676752
O       -0.89410169       0.92207085       1.20368906      -0.01334750      -0.10599431      -0.05734494
C        1.19728847       0.61541215       3.32266623      -0.00638454       0.02509181       0.00093130
C        0.94121831       5.51734837       4.04933094      -0.01266833       0.00317476      -0.02094399
H       -0.55221377       5.42114862       1.77618817      -0.06944748       0.02716460       0.04223655
H        1.57829188       5.23047081       4.89081822      -0.01018915       0.04614926      -0.08154466
H        0.05881297       6.00579879       4.46736727       0.02900320       0.04856230      -0.04176138
H        1.48744413       6.23984954       3.43939945      -0.02931891      -0.00785956       0.02070079
H        1.00178512      -0.12820659       2.55434161      -0.01237966       0.00280946       0.09091137
H        0.82413583       0.23561707       4.27616902      -0.02664323       0.04140596      -0.04680499
H        2.28209857       0.72278980       3.39697460      -0.03836128      -0.05543188       0.03499958
H        1.65936980       2.96405170       4.45243673       0.01219244       0.03594705       0.04200210
Na      -2.06736691      -0.83620134       0.32986661       0.05919055       0.01439065      -0.08201031
