86
Properties=species:S:1:pos:R:3:forces:R:3 energy=-424.2618208688401 dipole="-0.053576619461676474 -0.01080605527635099 0.2996036565859122" free_energy=-424.2618208688401 pbc="F F F"
B       -0.13799402      -0.00247485      -0.63196402       0.03310051       0.06722206       0.08289106
C       -1.88894942      -2.40773369       2.03672017      -0.09524714       0.00677587      -0.03236461
C       -0.63991886      -2.25898755       1.29096434       0.04607979      -0.11991712       0.10075647
C        0.51179568      -3.00179722       1.71612311      -0.01844973       0.01005884       0.01539383
C        0.35164607      -4.00601125       2.66136622      -0.04817454      -0.00337609      -0.01567374
C       -0.89383650      -4.29634195       3.21935799      -0.01118425       0.04827800      -0.00289967
C       -1.97971742      -3.47372724       2.94218259      -0.02542253       0.02904977      -0.01982352
C       -3.07607967      -1.46706505       1.85433228       0.03403232       0.06495772      -0.02887066
O       -0.51716786      -1.44952200       0.05876938      -0.03587078      -0.05649683       0.09292480
C        1.83042394      -2.77210185       1.05946241      -0.03727493       0.01427126       0.00257165
C       -1.11544747      -5.49148306       4.07525139       0.01493272      -0.00086942       0.02526681
H       -2.92254962      -3.67821584       3.42087578       0.04046774       0.04051635      -0.01399777
H       -2.75302663      -0.29323982       1.73411865       0.03574008      -0.07227566       0.00965977
H       -3.74585771      -1.46747070       2.73103624       0.04239034      -0.11072265      -0.04811740
H       -3.66255640      -1.75896301       0.97019448      -0.01134155       0.04952097      -0.00585648
H        1.78849290      -1.88643836       0.42291352       0.03243853      -0.00272093      -0.01640569
H        2.10902549      -3.62493930       0.43731599       0.00064067       0.03755183       0.00528165
H        2.61553452      -2.61746537       1.80254075      -0.00495260      -0.01127967      -0.03918292
H       -0.20398276      -6.07076208       4.21797843       0.07613762       0.02127296       0.02038561
H       -1.85386409      -6.15014628       3.61580437      -0.00574620      -0.03460656       0.01524907
H       -1.49736827      -5.19722628       5.05251847       0.02510125      -0.01675613       0.07222607
H        1.20652535      -4.59553411       2.94441354      -0.04007719      -0.02036425      -0.03690407
C        1.86985488      -0.74227762      -2.70091757       0.02885666       0.07312429      -0.00609037
C        2.14115312       0.25145036      -1.73303395      -0.03720735      -0.00158773       0.04814848
C        3.47603653       0.53405048      -1.37892234      -0.04686327       0.05582962      -0.01284262
C        4.51096746      -0.13779561      -1.99473408      -0.02951526      -0.03472604       0.05296737
C        4.26822278      -1.09982298      -2.96427798       0.00135060      -0.01114001       0.06175628
C        2.94669664      -1.37804016      -3.29600016       0.01402271      -0.05073033      -0.04390819
C        0.48997739      -1.05571987      -3.19416659       0.00836781       0.03712796       0.01598528
O        1.14473530       0.99753451      -1.08491107       0.11631989      -0.02138118      -0.03464512
C        3.73493166       1.58648336      -0.36732478      -0.00386254      -0.03302811      -0.02157316
C        5.40956119      -1.81438756      -3.61210540       0.01237109      -0.03911259       0.01828963
H        2.75558418      -2.10598192      -4.06140548       0.00526228      -0.07804648      -0.05108042
H       -0.35285516      -1.11364677      -2.33325793      -0.00337107      -0.03546930      -0.08084642
H        0.51007278      -2.01619444      -3.71865943       0.00265133       0.03428167      -0.08324000
H        0.17203621      -0.29776166      -3.91394291      -0.00593605       0.02596228       0.01309513
H        2.78787451       2.03574445      -0.05958004       0.08911395       0.01320942       0.07730821
H        4.36260228       2.37682341      -0.78375480       0.00530273      -0.01247212       0.05333112
H        4.22797431       1.16771217       0.51337485      -0.03751195       0.05871188      -0.02417945
H        6.36272639      -1.48988470      -3.19411528       0.02923484       0.04891437      -0.01494650
H        5.44504199      -1.64286116      -4.68778608      -0.07450802       0.07875073      -0.02907769
H        5.35491195      -2.89062929      -3.45609627      -0.11611057      -0.06557561       0.04309484
H        5.52734633       0.07601090      -1.71655998      -0.00660958       0.06592221       0.03208878
C       -2.98464678       1.70451765      -1.23104564       0.05765417      -0.02495866      -0.02894175
C       -2.36598566       0.43813178      -1.18412039      -0.00774479       0.00840635       0.00970937
C       -2.44378624      -0.43142082      -2.29211836      -0.04058224      -0.04209665       0.06678550
C       -3.35527912      -0.13281654      -3.28731468       0.04255699       0.02814375      -0.00796000
C       -4.11364865       1.03565187      -3.25502224      -0.00571213       0.02656000       0.00558671
C       -3.88208647       1.96623591      -2.24651127       0.02397719       0.01264120       0.03332834
C       -2.33511951       2.81965619      -0.37854888      -0.00028373      -0.07904705      -0.06118576
O       -1.59558278       0.18631327       0.01621552      -0.09729803       0.05976867      -0.10481018
C       -1.49700295      -1.59460119      -2.46215977      -0.06533147      -0.02249090      -0.00305869
C       -5.07515474       1.35515198      -4.34070652      -0.02077870      -0.00033642      -0.03564178
H       -4.37700121       2.92093587      -2.27872405      -0.01258911       0.00100179      -0.05572349
H       -1.28621999       2.21294473      -0.12693255       0.00601583      -0.03713240       0.05997712
H       -2.76256408       2.82250994       0.65178343      -0.01165325      -0.03920594       0.01255377
H       -2.90874057       3.71477026      -0.71840020      -0.06621147       0.06027054       0.00212250
H       -0.50766583      -1.99190629      -1.64213679       0.04364790      -0.11315469       0.07413271
H       -1.54784210      -1.98022658      -3.49198081       0.00421016       0.04357516      -0.02483816
H       -1.93367001      -2.44082321      -1.86885820      -0.01425276       0.01254546       0.05430766
H       -5.26357590       0.48758342      -4.97240705      -0.00832578      -0.03752294      -0.03446578
H       -4.69130563       2.15666568      -4.97315341       0.00072772       0.00574044      -0.02214050
H       -6.03141723       1.67880619      -3.92920088      -0.03237299       0.01715766       0.00888779
H       -3.45120651      -0.80468262      -4.12316119      -0.03170603       0.04474790       0.01156437
C        0.23144538       2.95700638       1.14033463      -0.00292705      -0.06459141      -0.03056206
C        0.71815470       1.65779881       1.49822208       0.05095007      -0.03067831      -0.09173876
C        1.20543903       1.44498981       2.84915631      -0.00218302       0.04036463      -0.08870468
C        1.34201389       2.55113499       3.69054448      -0.06288701      -0.00404570      -0.05997189
C        1.01125058       3.83156061       3.26553964       0.02894598       0.04020160       0.00670434
C        0.42697767       4.01067148       2.01559148       0.01539566      -0.08801885       0.00215759
C       -0.51218994       3.24107474      -0.16317275      -0.00706427       0.11919329       0.04476335
O        0.87847545       0.49630375       0.53893648       0.10634978       0.12168940      -0.03726003
C        1.66618459       0.08777299       3.33095745      -0.02598245       0.03044701      -0.01497701
C        1.30359907       4.99836958       4.14072046      -0.01478549       0.02286455       0.00645509
H        0.12972043       5.00178488       1.71319919       0.00470680      -0.07613009       0.03815337
H       -1.29253115       2.60762372      -0.98275141       0.11568297      -0.08662897      -0.05068558
H        0.17628965       3.47088038      -1.01318312      -0.00291026      -0.00039882       0.08468915
H       -1.63218818       3.96673208       0.02935403       0.10190246       0.03707073      -0.00899635
H        1.14632105      -0.75636345       2.77273157       0.02324835       0.00420565      -0.02368648
H        1.43369771      -0.02865455       4.39968338       0.03000299      -0.07381366       0.02315752
H        2.75276356      -0.03198837       3.20056822      -0.03283569       0.01316295      -0.02072319
H        1.98441980       4.71614997       4.94682191      -0.01883862       0.05312477      -0.00425576
H        0.39123073       5.38864485       4.59334005      -0.01564802       0.01897288      -0.01362677
H        1.78023321       5.79956577       3.57045826      -0.04366446      -0.00877813       0.04301612
H        1.71727346       2.40972383       4.68844810       0.06545845      -0.01237764      -0.03111409
Na      -0.75394277      -0.18100997       2.13700817      -0.07554304      -0.02910436       0.07087096
