66
Properties=species:S:1:pos:R:3:forces:R:3 energy=-330.0353490098668 dipole="-0.7682019886117111 0.24438280985191457 0.010069209724014603" free_energy=-330.0353490098668 pbc="F F F"
B        0.28633008       0.53039486       0.06329485       0.09806703       0.05010080      -0.00207572
C       -1.73835121      -2.32904662       2.05073292       0.08456141       0.03043498       0.01854594
C       -0.39255071      -2.02151763       1.62858219       0.09301055      -0.01912801      -0.05448385
C        0.60788311      -3.00546036       1.88322551      -0.03387929      -0.01951057       0.07847933
C        0.32151363      -4.20797766       2.52596051       0.01145721      -0.00479216      -0.03565842
C       -0.99913269      -4.46637820       2.90636196      -0.02523396       0.01997700       0.04488162
C       -2.00010741      -3.54842627       2.67149953      -0.03674284       0.02160584       0.00034751
H       -2.67757179      -1.58579829       1.90344104      -0.04536169       0.07729824      -0.01446062
O        0.13438078      -0.72030407       1.09960119       0.11009402       0.08212491       0.03269769
H       -3.00528889      -3.76586118       2.98323818      -0.08341584      -0.05078338       0.03717042
O        1.38511311      -5.09407332       2.76432558       0.01396715       0.00734303      -0.00435445
C        1.07913557      -6.20569633       3.57777548      -0.01204199       0.00967318      -0.00882482
H        1.99015692      -6.78858814       3.72091863      -0.01406154       0.00764002       0.00049239
H        0.32946067      -6.83445200       3.09926618       0.01085903      -0.01349579      -0.07998967
H        0.71305492      -5.87636415       4.54991553       0.02482129       0.06485797       0.01658622
H        1.63395500      -2.79997003       1.63815454      -0.10186388       0.05836533      -0.06167641
H       -1.24034708      -5.38404570       3.41215286       0.02435351       0.00777423      -0.03699432
C        1.89124063      -0.91119164      -2.90212262      -0.06007417      -0.00058236       0.09491494
C        1.95645376       0.13012386      -1.97267514      -0.05408569       0.06553399      -0.02459854
C        3.19101921       0.51437542      -1.46722736      -0.06251425       0.04720312       0.05691673
C        4.35897825      -0.11058739      -1.87503126      -0.02692425      -0.05451353       0.06399201
C        4.26154033      -1.15780822      -2.80263519       0.08095217      -0.02100876      -0.00340656
C        3.03762601      -1.54994966      -3.30581364      -0.00358015       0.00494358       0.00250414
H        0.92401584      -1.20644992      -3.26862158       0.00846393      -0.01020832      -0.01655021
O        0.78051897       0.76219251      -1.56757197       0.12228337      -0.06979802       0.02132959
H        2.97520788      -2.36533857      -4.00884980       0.02674349       0.01764476       0.01051646
O        5.55103794       0.34923070      -1.29640984       0.09978094      -0.01407374      -0.11625914
C        6.68295022       0.14701509      -2.10383353       0.05557777      -0.01256494      -0.02949244
H        7.51193362       0.71595856      -1.67781822      -0.00875723      -0.04041915      -0.03044475
H        6.47917332       0.51087648      -3.11506818       0.04024347      -0.05051148       0.06875345
H        6.94369030      -0.91356534      -2.12164407       0.00059805       0.06079650       0.00430366
H        3.25036302       1.29997425      -0.73864641      -0.03549781       0.02644490       0.00301415
H        5.14611842      -1.69212806      -3.09770797       0.02854735       0.05238921       0.00193071
C       -2.23029802       1.31786388      -1.45359637      -0.04132158      -0.01181805       0.03164950
C       -1.69023981       0.02200121      -1.73628164       0.01617848       0.02055543       0.05277782
C       -2.38394986      -0.84240259      -2.60133322      -0.02845633       0.01219575       0.07829708
C       -3.54284878      -0.42268009      -3.25158794      -0.01359071      -0.00890085      -0.01450964
C       -4.01894502       0.87564691      -3.00182110       0.00654560      -0.03077695      -0.02344545
C       -3.39298595       1.72303415      -2.10315394      -0.00086778      -0.07473805      -0.04287464
H       -1.71130421       1.97592662      -0.75638688       0.00004172      -0.05459951      -0.04781784
O       -0.37957061      -0.39968609      -1.14333446      -0.06846505       0.06200087       0.01906485
H       -3.80221397       2.70291614      -1.90780476       0.04846507      -0.07164066      -0.03679853
O       -4.13511489      -1.35925448      -4.11314625      -0.14003947       0.10694630      -0.08017128
C       -5.20812077      -0.87517268      -4.89493703      -0.03376617       0.02362947      -0.02066676
H       -5.53624707      -1.67831141      -5.55974407       0.02241814       0.05467494       0.05347636
H       -4.88720359      -0.02864538      -5.50720325       0.03782038      -0.05376496       0.07941141
H       -6.04880146      -0.58282527      -4.26094038       0.09737776      -0.03066106       0.01413635
H       -1.97948907      -1.81901001      -2.80470504      -0.04269291      -0.00631656      -0.02353678
H       -4.87686057       1.23145483      -3.54130111      -0.05811626      -0.04263458       0.03720768
C       -0.23062350       3.57397264       1.53812999      -0.01237396      -0.02824314       0.00493841
C        0.00375138       2.22307592       1.81365886      -0.09899465      -0.06457203      -0.02039996
C        0.95697583       1.88792657       2.76849857      -0.00845222      -0.03274297      -0.04477405
C        1.65156533       2.86868356       3.47180244      -0.02920792      -0.08085844       0.02104480
C        1.38811861       4.21111016       3.17307294       0.05155314      -0.04205170       0.07017038
C        0.45863784       4.55203508       2.21584481      -0.01658504      -0.01315250      -0.00647820
H       -0.95653345       3.84089975       0.79298341      -0.05203835      -0.03322536      -0.03938443
O       -0.75468804       1.19596081       1.13270791       0.04660457       0.01138256       0.03118553
H        0.26792789       5.59345858       2.01360120      -0.02717385      -0.01425028      -0.05861963
O        2.56397603       2.44881917       4.45048625       0.04459356       0.06820570       0.08702578
C        2.94138655       3.45255694       5.36989858       0.00193338       0.03674859       0.01320891
H        3.58848425       3.01721564       6.13438506      -0.04141791      -0.04063106      -0.06247090
H        2.05335515       3.86368506       5.85449275       0.01886791      -0.02733717      -0.03317277
H        3.49075868       4.24811391       4.86414829       0.01322889      -0.06264623      -0.01951838
H        1.14950041       0.85127723       2.97480849       0.00218867       0.03017652       0.00214975
H        1.92162043       4.98565416       3.69304674      -0.01800519      -0.00269260      -0.00858607
Na      -2.14041288      -0.54544353       0.50266379      -0.00659907       0.07097719      -0.05062633
