74

B          0.26311        0.55571        0.04933
C         -1.66962       -2.33710        2.08233
C         -0.34017       -2.03059        1.60043
C          0.68574       -2.99129        1.85568
C          0.42484       -4.17206        2.52815
C         -0.87751       -4.44490        2.93006
C         -1.92611       -3.55642        2.72426
H         -2.60309       -1.57506        1.96526
O          0.18369       -0.73550        1.05293
H          1.68762       -2.74786        1.55255
H         -1.07666       -5.37800        3.42362
C         -3.30022       -3.90092        3.17427
C          1.49836       -5.15051        2.87229
H         -3.30819       -4.83706        3.73437
H         -3.95793       -4.01668        2.31241
H         -3.70888       -3.12368        3.82156
H          2.46031       -4.86684        2.44481
H          1.24425       -6.14645        2.50646
H          1.62202       -5.22439        3.95438
C          3.38786        0.39672       -2.99123
C          2.19020        0.98156       -2.56259
C          1.56564        1.92173       -3.38678
C          2.14764        2.32034       -4.57756
C          3.35244        1.73667       -4.96683
C          3.97046        0.75683       -4.19166
H          3.85134       -0.35467       -2.37536
O          1.65056        0.62034       -1.32535
H          0.61908        2.32721       -3.07530
H          3.82747        2.07065       -5.87189
C          5.25713        0.13526       -4.61209
C          1.49217        3.35530       -5.42507
H          5.44481        0.29674       -5.67512
H          5.24955       -0.94103       -4.42756
H          6.08611        0.56455       -4.04808
H          0.80634        3.96709       -4.83754
H          0.92272        2.90387       -6.23801
H          2.23537        4.02094       -5.86239
C         -2.25272        1.27492       -1.51900
C         -1.67733       -0.00256       -1.77764
C         -2.37967       -0.92501       -2.58698
C         -3.56504       -0.54593       -3.20259
C         -4.08663        0.72457       -2.96816
C         -3.45637        1.63937       -2.12615
H         -1.69625        1.97559       -0.90498
O         -0.34134       -0.35389       -1.20298
H         -1.93924       -1.88764       -2.80719
H         -4.99003        1.01537       -3.47778
C         -4.03062        2.99927       -1.92251
C         -4.22332       -1.44978       -4.18517
H         -4.90298        3.16371       -2.55835
H         -3.29964        3.77152       -2.16582
H         -4.34171        3.14677       -0.88737
H         -3.72448       -2.41957       -4.22084
H         -4.18232       -1.02148       -5.18935
H         -5.27077       -1.61808       -3.92773
C         -0.52756        3.43633        1.53297
C         -0.20061        2.11732        1.86939
C          0.74968        1.87105        2.86038
C          1.36674        2.92100        3.51535
C          1.02082        4.22262        3.16783
C          0.07595        4.49453        2.18464
H         -1.26606        3.62672        0.77269
O         -0.84068        1.02302        1.18402
H          0.97173        0.85023        3.11835
H          1.48002        5.04127        3.69197
C         -0.26489        5.90218        1.84378
C          2.35339        2.68841        4.60322
H          0.14321        6.59048        2.58446
H         -1.34470        6.04755        1.81874
H          0.14257        6.18270        0.87189
H          2.72589        1.66428        4.59193
H          1.90180        2.87347        5.57813
H          3.20923        3.35641        4.49956
Na        -2.12017       -0.70954        0.38448
