50

B          0.03608        0.08779        0.12402
C         -1.79179       -2.61219        1.38654
C         -0.59221       -2.34081        0.73146
C          0.58109       -2.98181        1.14534
C          0.55197       -3.85340        2.21361
C         -0.64666       -4.11933        2.87394
C         -1.83050       -3.50375        2.44508
H         -2.68000       -2.10833        1.05849
O         -0.61932       -1.38961       -0.31150
H          1.50926       -2.75616        0.64593
H          1.46490       -4.33159        2.54021
H         -0.66842       -4.82469        3.69004
H         -2.90632       -3.82103        2.85930
C          1.73581       -0.67962       -2.36765
C          1.92767        0.32914       -1.42230
C          3.22322        0.70452       -1.05514
C          4.30369        0.10261       -1.65149
C          4.10590       -0.87969       -2.60958
C          2.82333       -1.27650       -2.95770
H          0.73049       -0.97939       -2.60801
O          0.86630        0.92575       -0.81506
H          3.34876        1.45835       -0.29646
H          5.30370        0.40470       -1.38242
H          4.95632       -1.32688       -3.09900
H          2.67992       -2.04681       -3.69934
C         -3.00426        1.44404       -1.21207
C         -2.40377        0.18961       -1.08920
C         -2.58091       -0.73906       -2.11659
C         -3.34173       -0.42753       -3.22163
C         -3.94227        0.81806       -3.32783
C         -3.75436        1.75865       -2.32504
H         -2.87445        2.15549       -0.41723
O         -1.65451       -0.16539        0.04993
H         -2.11851       -1.70457       -2.00811
H         -3.45544       -1.15041       -4.01591
H         -4.57467        1.03933       -4.17669
H         -4.18815        2.74285       -2.42887
C          0.10484        2.69078        1.16865
C          0.84073        1.71292        1.84242
C          1.44655        2.03323        3.06262
C          1.31836        3.30075        3.58071
C          0.58923        4.26219        2.89809
C         -0.02162        3.95288        1.69485
H         -0.31834        2.44406        0.21102
O          1.04295        0.50833        1.24677
H          2.03640        1.28550        3.56486
H          1.80409        3.55769        4.50936
H          0.51386        5.26240        3.29423
H         -0.57014        4.71138        1.16002
Na        -0.20659       -0.57527        2.53397
