26
	Energy:     -86.9073579
P          0.63006        1.51114        0.21078
O          0.73018        2.48224        1.34447
O          1.93957        1.43617       -0.72493
O          0.40451       -0.02138        0.65400
O         -0.55993        1.79692       -0.83673
C          3.18923        1.26037       -0.07864
C          4.08398        2.44096       -0.39176
H          3.64196        0.34084       -0.46016
H          3.06678        1.15031        1.00413
H          4.21302        2.55087       -1.47352
H          5.06799        2.31519        0.06899
H          3.63852        3.37154       -0.02590
C         -1.79026        2.29336       -0.33915
C         -2.62325        1.18288        0.26936
H         -2.33052        2.72987       -1.18528
H         -1.61498        3.09583        0.38406
H         -2.74547        0.35688       -0.43858
H         -3.61205        1.55267        0.55549
H         -2.13875        0.77481        1.16153
C          0.21190       -1.01169       -0.34110
C          1.30829       -2.05145       -0.23630
H          0.19779       -0.57937       -1.34650
H         -0.76104       -1.47905       -0.16153
H          2.28052       -1.61263       -0.47788
H          1.12380       -2.88094       -0.92472
H          1.37932       -2.44305        0.78339
