50
	Energy:      78.6452678
B         10.10819        9.86939        9.90457
O         10.39402       10.46553       11.21141
O         10.49775       10.80013        8.84212
O         10.79036        8.58702        9.75488
O          8.67493        9.59404        9.83716
C         10.19140        9.89553       12.42654
C         10.06797       12.07092        8.61746
C         11.79515        8.20373        8.93251
C          7.99801        8.94952        8.85084
C          9.64048       10.68705       13.44500
C         10.51018        8.54863       12.70936
C          9.15035       12.73788        9.45941
C         10.56529       12.74334        7.49177
C         12.86113        9.05090        8.58446
C         11.76252        6.89477        8.43813
C          6.72522        8.45048        9.15550
C          8.52637        8.73809        7.55911
C          9.39210       10.14693       14.71025
C         10.27199        8.01730       13.97826
C          8.75033       14.04697        9.16920
C         10.16068       14.05092        7.20475
C         13.88005        8.57968        7.74674
C         12.77314        6.43189        7.59270
C          5.99350        7.73989        8.19997
C          7.78686        8.03488        6.60350
C          9.25396       14.70259        8.04337
C          9.70809        8.81259       14.97722
C         13.83318        7.27327        7.24934
C          6.52406        7.53207        6.92511
H          9.38685       11.72135       13.24729
H         10.95457        7.89972       11.97309
H          8.74091       12.25946       10.33755
H         11.26894       12.24869        6.83362
H         12.91976       10.05965        8.96955
H         10.94333        6.23718        8.70219
H          6.30983        8.59731       10.14463
H          9.50249        9.10694        7.27940
H         14.61962        6.91038        6.60025
H          8.94176       15.71507        7.82058
H          9.51874        8.39480       15.95700
H          5.95765        6.97952        6.18692
H          8.95262       10.76187       15.48478
H         10.52525        6.98551       14.18657
H          8.04801       14.55446        9.81811
H         10.55003       14.55941        6.33188
H          8.19675        7.87466        5.61488
H          5.01755        7.34566        8.45147
H         14.70764        9.22568        7.48614
H         12.73297        5.42081        7.20836
Na         8.61041        6.33917       11.07257
