50

B         10.10974       10.03250        9.84970
O         10.50940       10.55604       11.19200
O         10.64400       10.98236        8.85298
O         10.62686        8.68226        9.58098
O          8.63286        9.90934        9.84670
C         10.18710        9.89872       12.35490
C         10.11894       12.21094        8.61546
C         11.65170        8.23342        8.83304
C          8.03040        9.13136        8.91034
C          9.46116       10.58866       13.33720
C         10.64280        8.59876       12.62770
C          9.20928       12.86404        9.46992
C         10.54242       12.87324        7.44756
C         12.88552        8.89300        8.68900
C         11.48288        6.97972        8.21198
C          6.88738        8.40734        9.28890
C          8.50108        9.00904        7.58832
C          9.22752       10.00472       14.58428
C         10.39892        8.01930       13.87492
C          8.73814       14.13956        9.14826
C         10.06558       14.14660        7.13834
C         13.92946        8.28618        7.98630
C         12.52882        6.38398        7.51052
C          6.26568        7.54034        8.38924
C          7.87624        8.13494        6.69816
C          9.70152        8.71962       14.86376
C         13.76688        7.02756        7.40126
C          6.76340        7.38490        7.09144
H          9.09636       11.59508       13.11352
H         11.19856        8.05956       11.85824
H          8.88646       12.37096       10.38804
H         11.25636       12.36674        6.79158
H         13.03148        9.87852        9.13206
H         10.50762        6.49184        8.29842
H          6.51872        8.51138       10.31342
H          9.38004        9.57934        7.27784
H         14.59402        6.55276        6.86702
H          9.53386        8.26910       15.84608
H          6.29268        6.68388        6.39688
H          8.67398       10.56262       15.34572
H         10.77388        7.01162       14.07946
H          8.27478        8.03138        5.68372
H          5.39384        6.96482        8.71494
H         14.88856        8.80720        7.90576
H         12.37516        5.40546        7.04486
Na         8.47261       18.43034        7.30207
C          9.15570       14.79042        7.98410
H         10.38653       14.61817        6.27832
H          8.07098       14.60866        9.78061
H          8.79876       15.73052        7.75207
