137
molecula
B      3.37721    3.07213    0.22750
C      3.83871    4.66252    0.21723
C      2.52048    1.93671    1.03669
C      2.07157    3.27810   -0.74667
H      7.44039   12.29101   -4.54802
C      4.76218    2.29345   -0.12872
C      4.64536    5.05718   -0.80493
C      5.12491    6.44724   -0.95496
C      4.74725    7.37642   -0.08032
C      3.84371    7.01297    1.02127
C      3.41361    5.74908    1.16042
C      1.72237    2.18946    2.09640
C      0.89533    1.13214    2.72022
C      0.90712   -0.11155    2.22953
C      1.74625   -0.42929    1.06910
C      2.50062    0.52250    0.51026
C      1.05817    4.08992   -0.32231
C     -0.18784    4.27952   -1.08318
C     -0.36695    3.62778   -2.23194
C      0.69308    2.73446   -2.72824
C      1.82913    2.57449   -2.04248
C      5.10035    1.54716   -1.20022
C      6.44520    0.93514   -1.31975
C      7.36037    1.12271   -0.36790
C      7.03323    1.93796    0.80887
C      5.81330    2.48159    0.92177
H      4.99050    4.37866   -1.57309
H      5.78135    6.70444   -1.77555
H      5.09362    8.40204   -0.18386
H      3.51867    7.77350    1.71341
H      2.73446    5.56742    1.97650
H      1.61369    3.17889    2.51746
H      0.26889    1.37030    3.56655
H      0.29188   -0.88279    2.68060
H      1.74500   -1.43627    0.66230
H      3.07360    0.22341   -0.34959
H      1.10354    4.62272    0.61817
H     -0.96442    4.93742   -0.70513
H     -1.28112    3.75060   -2.79280
H      0.53727    2.20215   -3.65963
H      2.53304    1.89633   -2.47483
H      4.44866    1.34668   -2.01873
H      6.68097    0.33781   -2.18673
H      8.34524    0.67774   -0.45683
H      7.77610    2.09547    1.57905
H      5.63140    3.07310    1.80651
C     -3.00616   -6.12908    1.45416
O     -1.84136   -5.20685    1.45931
H     -3.74130   -5.92157    0.55741
H     -2.45153   -7.08389    1.45408
H     -3.63891   -6.44751    2.34488
C     -1.39628   -3.85362    1.46189
C     -0.09874   -3.57595    1.48611
H     -1.38771   -2.95343    0.58542
H     -1.91848   -3.19419    2.33759
O      1.05481   -4.41857    1.35527
H     -0.09373   -2.96412    2.39611
H     -0.09011   -2.89687    0.62523
C      2.26014   -3.66136    1.50583
C      3.47386   -4.23226    1.46154
H      2.29508   -3.07146    2.42951
H      2.30380   -2.96413    0.66062
O      3.47579   -5.79026    1.44703
H      3.77330   -3.50819    0.56785
H      4.11306   -3.59613    2.34550
C      4.56035   -6.44534    1.40561
H      5.30017   -7.30495    2.27539
H      3.92351   -7.23660    1.39056
H      5.41679   -6.68643    0.49717
C     13.73626    0.03046   -4.09723
O     12.54742   -0.21601   -3.24096
H     14.71902    0.19207   -3.46817
H     13.67011   -0.87624   -4.72395
H     13.80199    0.70791   -5.00931
C     11.73490    0.25595   -2.17026
C     10.66800   -0.43334   -1.78567
H     11.91167    0.32728   -0.92838
H     11.37835    1.40574   -2.32919
O     10.19689   -1.73719   -2.15421
H      9.92124    0.35773   -1.92353
H     10.91482   -0.47938   -0.71829
C      8.95349   -2.03211   -1.50935
C      8.29112   -3.17949   -1.72335
H      8.18468   -1.26649   -1.66795
H      9.15904   -2.08334   -0.43346
O      8.85520   -4.06877   -2.87165
H      8.32701   -3.40861   -0.55766
H      7.08455   -2.80698   -1.73135
C      8.31620   -5.17689   -3.16940
H      7.57873   -5.72357   -4.26487
H      9.07588   -5.21045   -3.84293
H      8.29636   -6.32737   -2.62821
C     -4.88525    6.57492    2.82479
O     -4.45184    6.18015    1.45965
H     -4.25937    7.47619    3.25332
H     -5.95383    6.74830    2.60719
H     -5.13064    5.88693    3.69749
C     -3.37058    5.77101    0.62729
C     -3.57737    5.50659   -0.65669
H     -2.37632    6.37722    0.15552
H     -2.75710    4.83114    1.09063
O     -4.72791    5.69792   -1.49183
H     -3.19955    4.47717   -0.66009
H     -2.78853    6.15480   -1.05657
C     -4.48854    5.20113   -2.81272
C     -5.42874    5.23176   -3.76984
H     -4.14401    4.16035   -2.83417
H     -3.69851    5.82508   -3.24741
O     -6.85212    5.64658   -3.29077
H     -4.69446    5.86176   -4.46017
H     -5.24644    4.13806   -4.37416
C     -7.82452    5.71303   -4.10141
H     -9.04338    5.00488   -4.33741
H     -8.32171    6.01449   -3.26846
H     -8.16621    6.53281   -5.01141
C      6.10365   17.41222    2.09720
O      5.88645   15.98238    1.75712
H      6.88748   17.55504    2.96487
H      6.37893   17.77378    1.09083
H      5.31247   18.22128    2.21813
C      5.53272   14.68736    2.23370
C      5.47533   13.65891    1.39686
H      6.13349   13.84276    2.94387
H      4.49553   14.69167    2.86506
O      5.86503   13.53089    0.02225
H      4.43459   13.37000    1.58618
H      6.12079   12.98265    1.96991
C      5.55371   12.22621   -0.47750
C      5.78867   11.87298   -1.75069
H      4.50667   11.93725   -0.32722
H      6.18029   11.51704    0.07649
O      6.22324   13.03463   -2.69372
H      6.46271   10.97189   -1.36818
H      4.78640   11.15760   -2.03053
C      6.47408   12.82708   -3.91892
H      5.89237   13.16405   -5.18021
H      6.68209   13.82127   -3.90459
