15
	Energy:      -7.2099506
C         -6.67996        0.03380        0.25785
C         -5.72221       -1.09541        0.02411
C         -4.38956       -0.38888        0.05194
H         -5.92638       -1.54190       -0.95313
H         -5.79432       -1.84498        0.81544
C         -4.74308        0.98661       -0.46579
H         -3.62649       -0.88727       -0.55304
H         -4.02251       -0.33826        1.08448
O         -6.06632        1.23069        0.01805
C         -3.80165        2.06863        0.03074
H         -4.77599        0.99791       -1.56190
H         -2.75622        1.80401       -0.15416
H         -3.93936        2.25477        1.10151
H         -4.01319        3.01430       -0.47988
O         -7.85127       -0.08726        0.57860
