12
	Energy:      -7.9616505
C         -2.01769        0.04137       -0.02551
C         -0.52823        0.26088        0.02252
C          0.05300       -1.11467       -0.02393
H         -0.22785        0.75490        0.95027
H         -0.18636        0.83648       -0.84205
O         -0.92327       -2.05865       -0.03724
C         -2.20928       -1.45292        0.03071
H         -2.69650       -1.76465        0.96000
H         -2.81343       -1.81119       -0.80892
H         -2.44606        0.45411       -0.94582
H         -2.53027        0.54178        0.80330
O          1.24664       -1.36697       -0.04109
