10

C         -2.75463       -0.16640       -0.26259
C         -1.25806       -0.20916       -0.30333
F         -0.59642        1.04453        0.22883
O         -3.08514       -1.54435       -0.29369
H         -3.18339        0.35918       -1.11986
H         -3.15549        0.26277        0.66304
O         -0.98257       -1.34426        0.49904
H         -0.88572       -0.42384       -1.31252
C         -2.02919       -2.20057        0.27978
O         -2.02257       -3.38785        0.55712
