49

B         10.10973       10.03250        9.84970
O         10.50940       10.55604       11.19199
O         10.64400       10.98236        8.85299
O         10.62685        8.68225        9.58098
O          8.63285        9.90935        9.84669
C         10.18710        9.89873       12.35491
C         10.11893       12.21095        8.61546
C         11.65169        8.23341        8.83305
C          8.03040        9.13136        8.91033
C          9.46116       10.58866       13.33719
C         10.64280        8.59876       12.62770
C          9.20928       12.86404        9.46991
C         10.54242       12.87323        7.44755
C         12.88552        8.89301        8.68901
C         11.48287        6.97972        8.21198
C          6.88737        8.40735        9.28890
C          8.50109        9.00905        7.58833
C          9.22752       10.00473       14.58428
C         10.39892        8.01930       13.87492
C          8.73815       14.13957        9.14826
C         10.06558       14.14659        7.13835
C         13.92946        8.28618        7.98630
C         12.52882        6.38398        7.51052
C          6.26568        7.54035        8.38924
C          7.87624        8.13493        6.69815
C          9.15571       14.79041        7.98410
C          9.70151        8.71963       14.86375
C         13.76688        7.02755        7.40125
C          6.76339        7.38489        7.09145
F          9.09636       11.59509       13.11351
F         11.19856        8.05957       11.85823
F          8.88646       12.37096       10.38805
F         11.25635       12.36673        6.79159
F         13.03148        9.87852        9.13206
F         10.50763        6.49185        8.29843
F          6.51873        8.51138       10.31342
F          9.38003        9.57935        7.27784
F         14.59401        6.55276        6.86702
F          8.77752       15.78643        7.73837
F          9.53386        8.26910       15.84609
F          6.29267        6.68388        6.39689
F          8.67398       10.56263       15.34572
F         10.77387        7.01162       14.07946
F          8.03235       14.63148        9.82523
F         10.40753       14.64014        6.22339
F          8.27477        8.03137        5.68372
F          5.39383        6.96481        8.71494
F         14.88855        8.80719        7.90576
F         12.37517        5.40547        7.04486
