85

B          0.06941       -0.04880       -0.54200
C         -2.01509       -2.39411        2.00214
C         -0.82206       -2.29892        1.16630
C          0.38474       -2.95670        1.58064
C          0.32762       -3.87735        2.64127
C         -0.86091       -4.05328        3.34970
C         -1.99646       -3.31616        3.05893
C         -3.15795       -1.40013        1.87548
O         -0.75037       -1.51077       -0.08359
C          1.63895       -2.68530        0.80633
H         -0.88081       -4.73895        4.18353
H         -2.89171       -3.45597        3.64294
H         -2.73169       -0.28074        1.71807
H         -3.76601       -1.37080        2.79400
H         -3.81652       -1.68244        1.04054
H          1.50686       -1.83358        0.13696
H          1.92663       -3.54913        0.20692
H          2.46694       -2.42764        1.46601
C          1.49256       -4.72894        2.98974
H          2.41904       -4.31885        2.58968
H          1.35786       -5.72912        2.57530
H          1.59681       -4.81816        4.07240
C          1.85695       -0.88740       -2.77925
C          2.08119        0.19947       -1.90695
C          3.38154        0.51676       -1.46009
C          4.45573       -0.26670       -1.86410
C          4.21859       -1.34491       -2.71174
C          2.94697       -1.64079       -3.16782
C          0.49392       -1.17791       -3.32978
O          1.05436        0.91830       -1.36686
C          3.53250        1.67248       -0.53975
H          5.05000       -1.94637       -3.04320
H          2.79082       -2.47167       -3.83680
H         -0.34581       -1.20181       -2.46059
H          0.51197       -2.12479       -3.88617
H          0.19803       -0.39480       -4.03374
H          2.58333        2.20413       -0.45612
H          4.28626        2.38164       -0.88644
H          3.80303        1.33231        0.45871
C          5.85403        0.01453       -1.42998
H          5.89782        0.46779       -0.44068
H          6.34835        0.68936       -2.12760
H          6.44615       -0.90079       -1.38472
C         -2.90240        1.65487       -1.24847
C         -2.28792        0.39002       -1.24176
C         -2.44127       -0.48848       -2.33431
C         -3.46129       -0.21448       -3.24633
C         -4.16192        0.98524       -3.16182
C         -3.84328        1.93587       -2.21111
C         -2.54152        2.62877       -0.75858
O         -1.50660        0.09104       -0.03867
C         -1.50249       -1.65561       -2.55131
H         -4.92369        1.18684       -3.89399
H         -4.29932        2.90832       -2.23064
H         -1.05627        2.12546        0.19876
H         -2.84290        2.48532        0.30722
H         -3.22617        3.50376       -0.90395
H         -0.49306       -2.06349       -1.75357
H         -1.56110       -2.01905       -3.58611
H         -1.92151       -2.51072       -1.95777
C         -3.82437       -1.18581       -4.32070
H         -3.60271       -2.21321       -4.02590
H         -3.27741       -0.97516       -5.24219
H         -4.89481       -1.15335       -4.54317
C          0.24385        2.91273        1.17041
C          0.80018        1.64998        1.52860
C          1.34378        1.45909        2.85870
C          1.52456        2.59182        3.68025
C          0.98518        3.80906        3.27914
C          0.33210        3.95425        2.07043
C         -0.31109        3.17248        0.22196
O          0.95625        0.48983        0.63068
C          1.77744        0.07883        3.30804
H          1.07991        4.65862        3.93369
H         -0.08792        4.90898        1.80112
H         -1.51503        2.46809       -1.40020
H          0.40125        3.38752       -0.60955
H         -0.81795        4.11637        0.17835
H          1.25153       -0.73372        2.70523
H          1.51874       -0.10126        4.36288
H          2.86336       -0.05517        3.19574
C          2.31322        2.53757        4.94713
H          2.70848        1.53733        5.12036
H          1.70200        2.81620        5.80814
H          3.16863        3.21872        4.91461
