73

B          0.26699        0.58015        0.07727
C         -1.51970       -2.47356        1.98508
C         -0.21195       -2.10898        1.49325
C          0.86393       -3.03408        1.71983
C          0.62783       -4.18841        2.44018
C         -0.62780       -4.51679        2.93721
C         -1.70004       -3.67549        2.66838
H         -2.49924       -1.76368        1.86294
O          0.22250       -0.76323        1.00942
C          2.25410       -2.69649        1.31325
C         -0.79981       -5.70698        3.80670
H         -2.67598       -3.94614        3.03101
H          0.15142       -6.21316        3.97201
H         -1.48928       -6.41839        3.35584
H         -1.18964       -5.41481        4.78213
H          2.28431       -1.79277        0.69902
H          2.69272       -3.51664        0.74143
H          2.87767       -2.53514        2.19631
H          1.46266       -4.83451        2.64374
C          1.97672       -0.38410       -3.06857
C          2.00538        0.49110       -1.98763
C          3.23679        0.82958       -1.39962
C          4.40343        0.34596       -1.97204
C          4.37333       -0.48129       -3.09642
C          3.13927       -0.86123       -3.61276
H          1.01417       -0.66986       -3.44799
O          0.77757        0.95893       -1.52551
C          3.22612        1.66160       -0.16286
C          5.63519       -0.92178       -3.76269
H          3.10705       -1.53623       -4.44856
H          6.51569       -0.45852       -3.31047
H          5.62728       -0.66284       -4.82474
H          5.75925       -2.00189       -3.68657
H          2.22377        1.66992        0.27330
H          3.49238        2.70299       -0.36072
H          3.91345        1.25802        0.58456
H          5.35043        0.58798       -1.51877
C         -2.18384        1.19054       -1.56550
C         -1.58837       -0.08373       -1.76348
C         -2.33244       -1.12023       -2.41191
C         -3.55042       -0.78044       -3.01242
C         -4.08808        0.50622       -2.89861
C         -3.42360        1.46339       -2.12747
H         -1.62319        1.93727       -1.01204
O         -0.24113       -0.36009       -1.18966
C         -1.71586       -2.48320       -2.53119
C         -5.31269        0.89159       -3.66526
H         -3.86910        2.43311       -1.98221
H         -5.64315        0.09244       -4.33205
H         -5.12833        1.77794       -4.27688
H         -6.14290        1.12664       -3.00066
H         -0.86212       -2.60455       -1.85825
H         -1.34714       -2.63660       -3.54594
H         -2.43288       -3.27311       -2.29928
H         -4.05134       -1.52341       -3.61264
C         -0.72717        3.31913        1.48075
C         -0.33482        2.04756        1.90417
C          0.58061        1.91951        2.96383
C          0.97632        3.06229        3.62817
C          0.54291        4.32747        3.24606
C         -0.27390        4.44266        2.12665
H         -1.40686        3.40197        0.65283
O         -0.89410        0.92207        1.20369
C          1.19729        0.61541        3.32267
C          0.94122        5.51735        4.04933
H         -0.55221        5.42115        1.77619
H          1.57829        5.23047        4.89082
H          0.05881        6.00580        4.46737
H          1.48744        6.23985        3.43940
H          1.00179       -0.12821        2.55434
H          0.82414        0.23562        4.27617
H          2.28210        0.72279        3.39697
H          1.65937        2.96405        4.45244
