85

B         -0.13799       -0.00247       -0.63196
C         -1.88895       -2.40773        2.03672
C         -0.63992       -2.25899        1.29096
C          0.51180       -3.00180        1.71612
C          0.35165       -4.00601        2.66137
C         -0.89384       -4.29634        3.21936
C         -1.97972       -3.47373        2.94218
C         -3.07608       -1.46707        1.85433
O         -0.51717       -1.44952        0.05877
C          1.83042       -2.77210        1.05946
C         -1.11545       -5.49148        4.07525
H         -2.92255       -3.67822        3.42088
H         -2.75303       -0.29324        1.73412
H         -3.74586       -1.46747        2.73104
H         -3.66256       -1.75896        0.97019
H          1.78849       -1.88644        0.42291
H          2.10903       -3.62494        0.43732
H          2.61553       -2.61747        1.80254
H         -0.20398       -6.07076        4.21798
H         -1.85386       -6.15015        3.61580
H         -1.49737       -5.19723        5.05252
H          1.20653       -4.59553        2.94441
C          1.86985       -0.74228       -2.70092
C          2.14115        0.25145       -1.73303
C          3.47604        0.53405       -1.37892
C          4.51097       -0.13780       -1.99473
C          4.26822       -1.09982       -2.96428
C          2.94670       -1.37804       -3.29600
C          0.48998       -1.05572       -3.19417
O          1.14474        0.99753       -1.08491
C          3.73493        1.58648       -0.36732
C          5.40956       -1.81439       -3.61211
H          2.75558       -2.10598       -4.06141
H         -0.35286       -1.11365       -2.33326
H          0.51007       -2.01619       -3.71866
H          0.17204       -0.29776       -3.91394
H          2.78787        2.03574       -0.05958
H          4.36260        2.37682       -0.78375
H          4.22797        1.16771        0.51337
H          6.36273       -1.48988       -3.19412
H          5.44504       -1.64286       -4.68779
H          5.35491       -2.89063       -3.45610
H          5.52735        0.07601       -1.71656
C         -2.98465        1.70452       -1.23105
C         -2.36599        0.43813       -1.18412
C         -2.44379       -0.43142       -2.29212
C         -3.35528       -0.13282       -3.28731
C         -4.11365        1.03565       -3.25502
C         -3.88209        1.96624       -2.24651
C         -2.33512        2.81966       -0.37855
O         -1.59558        0.18631        0.01622
C         -1.49700       -1.59460       -2.46216
C         -5.07515        1.35515       -4.34071
H         -4.37700        2.92094       -2.27872
H         -1.28622        2.21294       -0.12693
H         -2.76256        2.82251        0.65178
H         -2.90874        3.71477       -0.71840
H         -0.50767       -1.99191       -1.64214
H         -1.54784       -1.98023       -3.49198
H         -1.93367       -2.44082       -1.86886
H         -5.26358        0.48758       -4.97241
H         -4.69131        2.15667       -4.97315
H         -6.03142        1.67881       -3.92920
H         -3.45121       -0.80468       -4.12316
C          0.23145        2.95701        1.14033
C          0.71815        1.65780        1.49822
C          1.20544        1.44499        2.84916
C          1.34201        2.55113        3.69054
C          1.01125        3.83156        3.26554
C          0.42698        4.01067        2.01559
C         -0.51219        3.24107       -0.16317
O          0.87848        0.49630        0.53894
C          1.66618        0.08777        3.33096
C          1.30360        4.99837        4.14072
H          0.12972        5.00178        1.71320
H         -1.29253        2.60762       -0.98275
H          0.17629        3.47088       -1.01318
H         -1.63219        3.96673        0.02935
H          1.14632       -0.75636        2.77273
H          1.43370       -0.02865        4.39968
H          2.75276       -0.03199        3.20057
H          1.98442        4.71615        4.94682
H          0.39123        5.38864        4.59334
H          1.78023        5.79957        3.57046
H          1.71727        2.40972        4.68845
