73

B         -0.05896        0.10591       -0.28676
C         -1.78472       -2.56650        1.34060
C         -0.40972       -1.86345        1.17244
C          0.74055       -2.79240        1.58033
C          0.55585       -3.72480        2.53327
C         -0.76650       -3.95029        3.13722
C         -1.86008       -3.39675        2.60534
C         -2.96659       -1.58674        1.33584
O         -0.21086       -1.38419       -0.15740
C          2.11936       -2.66207        0.99145
H         -0.85558       -4.60010        4.00217
H         -2.82424       -3.60968        3.05932
H         -2.97931       -0.95421        0.43733
H         -2.94073       -0.92184        2.22339
H         -3.92141       -2.15336        1.35606
H          2.16600       -1.85575        0.24817
H          2.40866       -3.61123        0.49273
H          2.85481       -2.43341        1.79187
H          1.38615       -4.33984        2.87049
C          2.02701       -0.95117       -3.00337
C          2.02401       -0.14298       -1.83144
C          3.26747        0.05212       -1.15825
C          4.41811       -0.62543       -1.59029
C          4.37863       -1.46165       -2.69723
C          3.19665       -1.61034       -3.40895
C          0.82278       -1.11764       -3.88288
O          0.85000        0.44151       -1.42674
C          3.45544        1.00267       -0.02404
H          5.27653       -1.96957       -3.02518
H          3.19490       -2.23607       -4.29384
H         -0.03110       -0.50294       -3.54217
H          0.53957       -2.19047       -3.93846
H          1.06827       -0.77408       -4.90933
H          2.57464        1.62540        0.09787
H          4.26913        1.71653       -0.27596
H          3.71735        0.46288        0.90956
H          5.36265       -0.48555       -1.07745
C         -3.13097        1.76366       -2.05489
C         -2.30160        0.54101       -1.66252
C         -2.56611       -0.63325       -2.36574
C         -3.57971       -0.63140       -3.46663
C         -4.27121        0.45814       -3.77966
C         -4.04675        1.69503       -3.04178
C         -2.97844        3.10375       -1.38854
O         -1.39240        0.69763       -0.61249
C         -1.98120       -2.00668       -2.12571
H         -5.00480        0.43306       -4.57951
H         -4.63502        2.56240       -3.32999
H         -0.89612       -2.04532       -2.23213
H         -2.36874       -2.76021       -2.84325
H         -2.28299       -2.38681       -1.14394
H         -3.78455       -1.53396       -4.03508
C          0.65508        3.06900        1.26104
C          0.80123        1.73853        1.73806
C          1.32347        1.56003        3.05135
C          1.61956        2.67015        3.85612
C          1.43188        3.95995        3.38140
C          0.96451        4.16028        2.09059
C          0.17420        3.35881       -0.10617
O          0.48243        0.61025        1.01351
C          1.60573        0.20694        3.64335
H          1.66272        4.80913        4.01192
H          0.84178        5.17714        1.73790
H         -0.80992        2.91114       -0.13098
H          0.84434        2.91686       -0.86898
H          0.08399        4.44601       -0.31551
H          1.41000       -0.61315        2.93612
H          0.98961        0.05422        4.55461
H          2.67933        0.14339        3.92051
H          2.00524        2.53289        4.85935
H         -3.73293        3.84557       -1.72902
H         -2.00932        3.53985       -1.69100
H         -3.09299        3.00200       -0.28912
