65

B          0.28633        0.53039        0.06329
C         -1.73835       -2.32905        2.05073
C         -0.39255       -2.02152        1.62858
C          0.60788       -3.00546        1.88323
C          0.32151       -4.20798        2.52596
C         -0.99913       -4.46638        2.90636
C         -2.00011       -3.54843        2.67150
H         -2.67757       -1.58580        1.90344
O          0.13438       -0.72030        1.09960
H         -3.00529       -3.76586        2.98324
O          1.38511       -5.09407        2.76433
C          1.07914       -6.20570        3.57778
H          1.99016       -6.78859        3.72092
H          0.32946       -6.83445        3.09927
H          0.71305       -5.87636        4.54992
H          1.63396       -2.79997        1.63815
H         -1.24035       -5.38405        3.41215
C          1.89124       -0.91119       -2.90212
C          1.95645        0.13012       -1.97268
C          3.19102        0.51438       -1.46723
C          4.35898       -0.11059       -1.87503
C          4.26154       -1.15781       -2.80264
C          3.03763       -1.54995       -3.30581
H          0.92402       -1.20645       -3.26862
O          0.78052        0.76219       -1.56757
H          2.97521       -2.36534       -4.00885
O          5.55104        0.34923       -1.29641
C          6.68295        0.14702       -2.10383
H          7.51193        0.71596       -1.67782
H          6.47917        0.51088       -3.11507
H          6.94369       -0.91357       -2.12164
H          3.25036        1.29997       -0.73865
H          5.14612       -1.69213       -3.09771
C         -2.23030        1.31786       -1.45360
C         -1.69024        0.02200       -1.73628
C         -2.38395       -0.84240       -2.60133
C         -3.54285       -0.42268       -3.25159
C         -4.01895        0.87565       -3.00182
C         -3.39299        1.72303       -2.10315
H         -1.71130        1.97593       -0.75639
O         -0.37957       -0.39969       -1.14333
H         -3.80221        2.70292       -1.90780
O         -4.13511       -1.35925       -4.11315
C         -5.20812       -0.87517       -4.89494
H         -5.53625       -1.67831       -5.55974
H         -4.88720       -0.02865       -5.50720
H         -6.04880       -0.58283       -4.26094
H         -1.97949       -1.81901       -2.80471
H         -4.87686        1.23145       -3.54130
C         -0.23062        3.57397        1.53813
C          0.00375        2.22308        1.81366
C          0.95698        1.88793        2.76850
C          1.65157        2.86868        3.47180
C          1.38812        4.21111        3.17307
C          0.45864        4.55204        2.21584
H         -0.95653        3.84090        0.79298
O         -0.75469        1.19596        1.13271
H          0.26793        5.59346        2.01360
O          2.56398        2.44882        4.45049
C          2.94139        3.45256        5.36990
H          3.58848        3.01722        6.13439
H          2.05336        3.86369        5.85449
H          3.49076        4.24811        4.86415
H          1.14950        0.85128        2.97481
H          1.92162        4.98565        3.69305
