73

B          0.35474        0.50691        0.05460
C         -1.69611       -2.44034        1.99048
C         -0.35414       -2.09474        1.58216
C          0.67400       -3.04165        1.88956
C          0.42481       -4.22394        2.56798
C         -0.88102       -4.52451        2.98862
C         -1.91516       -3.65129        2.65336
H         -2.64781       -1.69855        1.86376
O          0.17989       -0.80148        1.02679
H          1.69083       -2.80074        1.62894
C         -1.15552       -5.72927        3.83779
H         -2.91287       -3.90929        2.95697
C          1.55804       -5.15280        2.86973
H          2.47948       -4.79468        2.40435
H          1.35741       -6.15638        2.48180
H          1.72844       -5.22621        3.94821
H         -0.24030       -6.30292        3.99685
H         -1.89575       -6.39359        3.38025
H         -1.51815       -5.43019        4.82561
C          2.71229       -0.57209       -1.70278
C          2.83637        0.28568       -0.60741
C          4.09214        0.77361       -0.26986
C          5.18695        0.53565       -1.07062
C          5.02374       -0.18802       -2.26453
C          3.78699       -0.77399       -2.53827
H          1.76325       -1.05009       -1.87935
O          1.72972        0.67716        0.13871
H          4.17885        1.38413        0.61008
C          6.09954       -0.22645       -3.29107
H          3.67899       -1.38556       -3.42070
C          6.49010        1.11824       -0.66342
H          6.47648        1.42533        0.38138
H          6.72296        2.00133       -1.25114
H          7.30308        0.40568       -0.77838
H          6.99626        0.29697       -2.96498
H          5.75099        0.27881       -4.18905
H          6.38175       -1.24169       -3.56562
C         -2.36598        1.33256       -1.45816
C         -1.74260        0.07626       -1.72359
C         -2.41600       -0.85957       -2.54321
C         -3.56638       -0.50539       -3.23492
C         -4.11893        0.77285       -3.05090
C         -3.54560        1.64756       -2.12634
H         -1.86274        2.05985       -0.82415
O         -0.40650       -0.33044       -1.16709
H         -1.96152       -1.82808       -2.69015
C         -5.27789        1.23483       -3.87914
H         -4.01754        2.60252       -1.97577
C         -4.17344       -1.45911       -4.20953
H         -3.65446       -2.41832       -4.22208
H         -4.13712       -1.06106       -5.22550
H         -5.21801       -1.65262       -3.96194
H         -5.63759        0.46694       -4.56647
H         -5.01139        2.09946       -4.49088
H         -6.11662        1.52153       -3.24596
C         -0.27824        3.53755        1.42993
C         -0.03719        2.20433        1.76822
C          0.85383        1.92898        2.80186
C          1.41327        2.94714        3.55726
C          1.05625        4.27990        3.29225
C          0.26997        4.55410        2.17706
H         -0.91360        3.75877        0.59110
O         -0.72356        1.13116        1.08372
H          1.08424        0.89951        3.00464
C          1.41105        5.39820        4.21761
H          0.10228        5.58500        1.91129
C          2.37826        2.64166        4.64838
H          2.73410        1.61338        4.60862
H          1.93063        2.80237        5.62864
H          3.25639        3.28252        4.56773
H          2.06589        5.08381        5.02931
H          0.50611        5.79233        4.68090
H          1.90006        6.21932        3.69384
