91
molecula
B      3.37721    3.07213    0.22750
C      3.83871    4.66252    0.21723
C      2.52048    1.93671    1.03669
C      2.07157    3.27810   -0.74667
H      5.63140    3.07310    1.80651
C      4.76218    2.29345   -0.12872
C      4.64536    5.05718   -0.80493
C      5.12491    6.44724   -0.95496
C      4.74725    7.37642   -0.08032
C      3.84371    7.01297    1.02127
C      3.41361    5.74908    1.16042
C      1.72237    2.18946    2.09640
C      0.89533    1.13214    2.72022
C      0.90712   -0.11155    2.22953
C      1.74625   -0.42929    1.06910
C      2.50062    0.52250    0.51026
C      1.05817    4.08992   -0.32231
C     -0.18784    4.27952   -1.08318
C     -0.36695    3.62778   -2.23194
C      0.69308    2.73446   -2.72824
C      1.82913    2.57449   -2.04248
C      5.10035    1.54716   -1.20022
C      6.44520    0.93514   -1.31975
C      7.36037    1.12271   -0.36790
C      7.03323    1.93796    0.80887
C      5.81330    2.48159    0.92177
H      4.99050    4.37866   -1.57309
H      5.78135    6.70444   -1.77555
H      5.09362    8.40204   -0.18386
H      3.51867    7.77350    1.71341
H      2.73446    5.56742    1.97650
H      1.61369    3.17889    2.51746
H      0.26889    1.37030    3.56655
H      0.29188   -0.88279    2.68060
H      1.74500   -1.43627    0.66230
H      3.07360    0.22341   -0.34959
H      1.10354    4.62272    0.61817
H     -0.96442    4.93742   -0.70513
H     -1.28112    3.75060   -2.79280
H      0.53727    2.20215   -3.65963
H      2.53304    1.89633   -2.47483
H      4.44866    1.34668   -2.01873
H      6.68097    0.33781   -2.18673
H      8.34524    0.67774   -0.45683
H      7.77610    2.09547    1.57905
C     -0.97315   -3.72370    2.79897
O     -0.74919   -2.50340    2.10458
H     -1.94323   -3.70584    3.30505
H     -0.18863   -3.84117    3.55131
H     -0.92402   -4.57059    2.10773
C     -1.75836   -2.27122    1.12282
C     -1.46317   -0.97045    0.38417
H     -2.74192   -2.20950    1.60392
H     -1.78788   -3.10320    0.40890
O     -2.48471   -0.74195   -0.58670
H     -0.48432   -1.03534   -0.10583
H     -1.42749   -0.13703    1.09585
C     -2.24700    0.45684   -1.32476
C     -3.37485    0.65539   -2.33134
H     -1.28656    0.39093   -1.84973
H     -2.19942    1.31583   -0.64482
O     -3.14060    1.84509   -3.08362
H     -4.33349    0.72743   -1.80354
H     -3.42824   -0.20968   -3.00327
C     -4.17134    2.06595   -4.03771
H     -4.21937    1.23588   -4.74917
H     -3.94222    2.98337   -4.58648
H     -5.13643    2.18975   -3.53701
C     12.49000    4.61848   -0.83733
O     11.49122    3.62701   -0.63510
H     12.80367    5.04906    0.11855
H     12.06600    5.41362   -1.45641
H     13.35165    4.19115   -1.35924
C     11.96988    2.56840    0.19339
C     10.87918    1.51595    0.35904
H     12.25747    2.96221    1.17567
H     12.85958    2.11112   -0.25614
O     11.34643    0.43264    1.20551
H     10.59845    1.11424   -0.62192
H      9.98594    1.97100    0.80333
C     10.38745   -0.55857    1.37223
C     10.95470   -1.63788    2.28765
H     10.12380   -0.99453    0.40124
H      9.47383   -0.14042    1.81142
O      9.99051   -2.67593    2.45785
H     11.21161   -1.20081    3.26013
H     11.87442   -2.04697    1.85240
C     10.48259   -3.70598    3.30541
H     11.37852   -4.16240    2.87356
H      9.70999   -4.47387    3.39891
H     10.70388   -3.30953    4.30104
