92

B          3.37721        3.07213        0.22750
C          3.83871        4.66252        0.21723
C          2.52048        1.93671        1.03669
C          2.07157        3.27810       -0.74667
C          4.76218        2.29345       -0.12872
C          4.64536        5.05718       -0.80493
C          5.12491        6.44724       -0.95496
C          4.74725        7.37642       -0.08032
C          3.84371        7.01297        1.02127
C          3.41361        5.74908        1.16042
C          1.72237        2.18946        2.09640
C          0.89533        1.13214        2.72022
C          0.90712       -0.11155        2.22953
C          1.74625       -0.42929        1.06910
C          2.50062        0.52250        0.51026
C          1.05817        4.08992       -0.32231
C         -0.18784        4.27952       -1.08318
C         -0.36695        3.62778       -2.23194
C          0.69308        2.73446       -2.72824
C          1.82913        2.57449       -2.04248
C          5.10035        1.54716       -1.20022
C          6.44520        0.93514       -1.31975
C          7.36037        1.12271       -0.36790
C          7.03323        1.93796        0.80887
C          5.81330        2.48159        0.92177
H          4.99050        4.37866       -1.57309
H          5.78135        6.70444       -1.77555
H          5.09362        8.40204       -0.18386
H          3.51867        7.77350        1.71341
H          2.73446        5.56742        1.97650
H          1.61369        3.17889        2.51746
H          0.26889        1.37030        3.56655
H          0.29188       -0.88279        2.68060
H          1.74500       -1.43627        0.66230
H          3.07360        0.22341       -0.34959
H          1.10354        4.62272        0.61817
H         -0.96442        4.93742       -0.70513
H         -1.28112        3.75060       -2.79280
H          0.53727        2.20215       -3.65963
H          2.53304        1.89633       -2.47483
H          4.44866        1.34668       -2.01873
H          6.68097        0.33781       -2.18673
H          8.34524        0.67774       -0.45683
H          7.77610        2.09547        1.57905
H          5.63140        3.07310        1.80651
H         -1.79468       -2.81389       -8.65766
H         -1.46998       -4.20719       -7.58456
C         -1.99588       -3.25289       -7.66796
O         -1.51438       -2.41289       -6.62506
H         -1.92228       -0.61319       -7.59066
H          2.16132       -5.72679       -2.82976
H          1.18492       -4.64859       -3.87016
H         -3.07858       -3.42619       -7.57176
C          1.18212       -5.23729       -2.94946
C         -2.14478       -1.13669       -6.64486
H         -0.52708       -0.30869       -5.49816
O          0.13782       -6.19709       -3.06516
C         -1.63008       -0.30839       -5.49676
H          0.98092       -7.59199       -1.76856
H         -1.01458       -8.50859       -3.03156
H         -3.23968       -1.24839       -6.56706
H          1.01452       -4.56789       -2.09196
C          0.04812       -7.01839       -1.90586
H         -1.97128        0.73311       -5.62666
Na        -2.13618       -4.31489       -3.85346
C         -1.09788       -7.98289       -2.06546
O         -2.12348       -0.84329       -4.27286
H         -0.54128       -0.10669       -3.13616
H         -1.04498       -8.73659       -1.26106
H         -3.37828       -8.66099       -3.13266
H         -0.10518       -6.39749       -1.00686
O         -2.32728       -7.26799       -1.99556
C         -1.64408       -0.12199       -3.14236
C         -3.45308       -8.12169       -2.17346
O         -4.78198       -6.50509       -3.32926
H         -1.99988        0.92211       -3.17446
O         -1.50128       -2.02599       -1.70376
H         -5.91388       -5.09759       -4.26746
H         -3.49878       -8.86999       -1.36376
C         -2.15428       -0.77389       -1.88356
C         -4.71278       -7.29569       -2.14746
C         -5.92828       -5.66259       -3.33226
H         -1.43468       -3.65259       -0.48216
C         -1.98548       -2.71169       -0.55516
H         -3.24628       -0.91639       -1.94996
H         -5.58288       -7.97189       -2.08736
H         -1.94898       -0.10829       -1.02756
H         -6.85698       -6.25199       -3.28036
H         -4.72068       -6.65019       -1.25266
H         -5.90908       -4.96039       -2.48466
H         -3.06128       -2.92779       -0.64396
H         -1.81878       -2.12339        0.36074
