18
	Energy:     -22.1937559
C         -0.33633        0.39018        0.00000
C          0.65767       -0.50899       -0.00000
C          0.57652       -1.98706       -0.00000
C         -1.79889        0.16176        0.00000
O          1.85616       -2.45089        0.00000
O         -2.38824        1.38866       -0.00000
O         -2.38516       -0.90107        0.00000
O         -0.42242       -2.67657       -0.00000
H         -0.05853        1.44135        0.00000
H          1.67582       -0.12755        0.00000
C         -3.81602        1.33487        0.00000
H         -4.19400        2.36087       -0.00000
H         -4.18091        0.83151        0.90098
H         -4.18091        0.83151       -0.90098
C          1.94526       -3.87690       -0.00000
H          3.00387       -4.15051        0.00000
H          1.48086       -4.29024       -0.90098
H          1.48086       -4.29024        0.90098
