31

P          2.79633        1.61953        2.67547
F          3.37225        0.48951        1.64000
F          2.21975        2.75963        3.71599
F          1.28916        0.98722        2.53903
F          2.48896        2.62506        1.41360
F          3.10126        0.62338        3.94280
F          4.30197        2.26183        2.81830
H          2.34381       -3.34743       -5.03017
H          1.75198       -4.92239       -3.36006
H          1.80694       -3.82824        1.02344
O          2.24266       -4.39113       -0.88335
O          3.51810       -1.14217       -4.37428
H          3.66360        0.85548       -4.01327
Na         3.33575       -1.38095       -0.96903
C          3.40810       -3.49540       -4.78117
C          2.81753       -5.05347       -3.10732
C          2.38918       -4.60125        0.51604
C          4.22495        0.08143       -4.54236
H          4.30210        0.35367       -5.60662
H          2.01064       -5.59192        0.81274
C          4.17466       -2.22251       -5.02870
C          2.96171       -5.35970       -1.63923
O          3.54905       -3.87094       -3.41494
H          4.22271       -2.04047       -6.11619
H          2.56404       -6.37045       -1.44394
H          3.80616       -4.28592       -5.44044
H          3.20441       -5.90651       -3.69075
H          3.44332       -4.52066        0.82301
H          5.23923        0.01658       -4.11979
H          5.20756       -2.32665       -4.65504
H          4.02815       -5.35282       -1.35669
