16
	Energy:     -76.6974631
C         -5.45374       -0.00309        0.03519
S         -4.22683        0.03834       -1.26067
H         -6.33886       -0.51261       -0.35574
H         -5.72963        1.01505        0.31975
H         -5.07835       -0.56544        0.89044
N         -3.33988        1.28973       -0.90955
S         -2.48935        1.26451        0.41467
C         -1.06075        0.29354       -0.02841
H         -1.34218       -0.73232       -0.25814
H         -0.37654        0.29461        0.82499
H         -0.56691        0.76465       -0.88203
O         -5.03680        0.29005       -2.45425
O         -3.58501       -1.26622       -1.22773
O         -3.04736        0.64235        1.60180
O         -1.92825        2.60034        0.67354
Na        -2.77709        4.25724       -0.31917
