10
	Energy:     -16.8443763
C         -4.74173        0.72703        0.02356
C         -3.24782        0.74061       -0.03942
O         -5.11327        2.06503       -0.24493
H         -5.11441        0.44091        1.01240
H         -5.17835        0.05577       -0.72162
O         -2.90275        2.09431        0.18149
H         -2.86925        0.42714       -1.01767
H         -2.79834        0.10479        0.72884
C         -4.01555        2.84904       -0.04548
O         -4.02748        4.06723       -0.06725
