69
molecula
B      3.37721    3.07213    0.22750
C      3.83871    4.66252    0.21723
C      2.52048    1.93671    1.03669
C      2.07157    3.27810   -0.74667
Na     3.65560    3.76110    2.53859
C      4.76218    2.29345   -0.12872
C      4.64536    5.05718   -0.80493
C      5.12491    6.44724   -0.95496
C      4.74725    7.37642   -0.08032
C      3.84371    7.01297    1.02127
C      3.41361    5.74908    1.16042
C      1.72237    2.18946    2.09640
C      0.89533    1.13214    2.72022
C      0.90712   -0.11155    2.22953
C      1.74625   -0.42929    1.06910
C      2.50062    0.52250    0.51026
C      1.05817    4.08992   -0.32231
C     -0.18784    4.27952   -1.08318
C     -0.36695    3.62778   -2.23194
C      0.69308    2.73446   -2.72824
C      1.82913    2.57449   -2.04248
C      5.10035    1.54716   -1.20022
C      6.44520    0.93514   -1.31975
C      7.36037    1.12271   -0.36790
C      7.03323    1.93796    0.80887
C      5.81330    2.48159    0.92177
H      4.99050    4.37866   -1.57309
H      5.78135    6.70444   -1.77555
H      5.09362    8.40204   -0.18386
H      3.51867    7.77350    1.71341
H      2.73446    5.56742    1.97650
H      1.61369    3.17889    2.51746
H      0.26889    1.37030    3.56655
H      0.29188   -0.88279    2.68060
H      1.74500   -1.43627    0.66230
H      3.07360    0.22341   -0.34959
H      1.10354    4.62272    0.61817
H     -0.96442    4.93742   -0.70513
H     -1.28112    3.75060   -2.79280
H      0.53727    2.20215   -3.65963
H      2.53304    1.89633   -2.47483
H      4.44866    1.34668   -2.01873
H      6.68097    0.33781   -2.18673
H      8.34524    0.67774   -0.45683
H      7.77610    2.09547    1.57905
H      5.63140    3.07310    1.80651
C     -3.00616   -6.12908    1.45416
O     -1.84136   -5.20685    1.45931
H     -3.74130   -5.92157    0.55741
H     -2.45153   -7.08389    1.45408
H     -3.63891   -6.44751    2.34488
C     -1.39628   -3.85362    1.46189
C     -0.09874   -3.57595    1.48611
H     -1.38771   -2.95343    0.58542
H     -1.91848   -3.19419    2.33759
O      1.05481   -4.41857    1.35527
H     -0.09373   -2.96412    2.39611
H     -0.09011   -2.89687    0.62523
C      2.26014   -3.66136    1.50583
C      3.47386   -4.23226    1.46154
H      2.29508   -3.07146    2.42951
H      2.30380   -2.96413    0.66062
O      3.47579   -5.79026    1.44703
H      3.77330   -3.50819    0.56785
H      4.11306   -3.59613    2.34550
C      4.56035   -6.44534    1.40561
H      5.30017   -7.30495    2.27539
H      3.92351   -7.23660    1.39056
H      5.41679   -6.68643    0.49717
