95

B         10.10820        9.86940        9.90456
O         10.39402       10.46552       11.21140
O         10.49776       10.80012        8.84212
O         10.79036        8.58702        9.75488
O          8.67494        9.59404        9.83716
C         10.19140        9.89552       12.42654
C         10.06796       12.07092        8.61746
C         11.79516        8.20374        8.93252
C          7.99800        8.94952        8.85084
C          9.64048       10.68704       13.44500
C         10.51018        8.54862       12.70936
C          9.15036       12.73788        9.45942
C         10.56528       12.74334        7.49176
C         12.86112        9.05090        8.58446
C         11.76252        6.89476        8.43814
C          6.72522        8.45048        9.15550
C          8.52638        8.73810        7.55910
C          9.39210       10.14694       14.71026
C         10.27200        8.01730       13.97826
C          8.75032       14.04698        9.16920
C         10.16068       14.05092        7.20476
C         13.88006        8.57968        7.74674
C         12.77314        6.43190        7.59270
C          5.99350        7.73988        8.19998
C          7.78686        8.03488        6.60350
C          9.25396       14.70258        8.04338
C          9.70808        8.81258       14.97722
C         13.83318        7.27328        7.24934
C          6.52406        7.53208        6.92512
H          9.38686       11.72134       13.24728
H         10.95456        7.89972       11.97310
H          8.74092       12.25946       10.33756
H         11.26894       12.24870        6.83362
H         12.91976       10.05966        8.96954
H         10.94332        6.23718        8.70218
H          6.30982        8.59732       10.14462
H          9.50248        9.10694        7.27940
H         14.58272        6.93096        6.62803
H          8.94176       15.71508        7.82058
H          9.51874        8.39480       15.95700
H          5.95766        6.97952        6.18692
H          8.95262       10.76186       15.48478
H         10.52526        6.98552       14.18658
H          8.04800       14.55446        9.81810
H         10.55004       14.55942        6.33188
H          8.19676        7.87466        5.61488
H          5.01756        7.34566        8.45148
H         14.70764        9.22568        7.48614
H         12.73298        5.42082        7.20836
H          7.66152        0.88301        5.62385
C          7.74492        1.83731        5.09795
H          8.73462        2.27631        5.29915
O          6.70202        2.67731        5.57945
H          7.64872        1.66401        4.01525
H          5.57512        4.78151        6.56665
C          6.72172        3.95351        4.94905
H          7.66762        4.47701        5.17155
H          0.55912        1.43761        5.65905
C          5.57372        4.78181        5.46375
H          3.21312        4.98351        6.55255
O          1.78072        3.06421        5.59255
C          0.63212        2.37851        5.10825
O          4.34982        4.24691        4.97035
H          6.64402        3.84181        3.85415
C          3.21932        4.96821        5.44975
H          5.70362        5.82331        5.12255
H         -0.28378        2.96681        5.27505
C          1.96052        4.31631        4.93955
H          0.72092        2.16241        4.03255
H          3.25142        6.01231        5.09395
H          1.10452        4.98191        5.14485
H          2.02692        4.17381        3.84755
H         17.06101        3.92045       10.70666
H         18.18750        4.58323       11.92655
C         17.47060        4.84430       11.14431
H         17.98729        5.40964       10.35366
H         14.94626        5.11995       10.40003
O         16.44772        5.62487       11.75130
C         15.45186        6.01103       10.81022
H         15.90993        6.55978        9.96985
C         14.42965        6.88060       11.49491
H         14.07390        6.38743       12.41505
H         13.56477        7.01373       10.82259
O         15.01575        8.14141       11.80310
C         14.11451        8.99304       12.50309
H         13.77164        8.50742       13.43207
H         13.22740        9.20747       11.88255
O         15.79963       10.05897       13.82200
C         14.80727       10.29051       12.82797
H         15.26727       10.70990       11.91701
H         17.25374       10.98951       14.89986
C         16.51452       11.24822       14.13773
H         17.03169       11.64876       13.25250
H         14.05795       11.01325       13.19463
H         15.84124       12.02388       14.53492
