45

B          3.37721        3.07213        0.22750
C          3.83871        4.66252        0.21723
C          2.52048        1.93671        1.03669
C          2.07157        3.27810       -0.74667
C          4.76218        2.29345       -0.12872
C          4.64536        5.05718       -0.80493
C          5.12491        6.44724       -0.95496
C          4.74725        7.37642       -0.08032
C          3.84371        7.01297        1.02127
C          3.41361        5.74908        1.16042
C          1.72237        2.18946        2.09640
C          0.89533        1.13214        2.72022
C          0.90712       -0.11155        2.22953
C          1.74625       -0.42929        1.06910
C          2.50062        0.52250        0.51026
C          1.05817        4.08992       -0.32231
C         -0.18784        4.27952       -1.08318
C         -0.36695        3.62778       -2.23194
C          0.69308        2.73446       -2.72824
C          1.82913        2.57449       -2.04248
C          5.10035        1.54716       -1.20022
C          6.44520        0.93514       -1.31975
C          7.36037        1.12271       -0.36790
C          7.03323        1.93796        0.80887
C          5.81330        2.48159        0.92177
F          4.99050        4.37866       -1.57309
F          5.78135        6.70444       -1.77555
F          5.09362        8.40204       -0.18386
F          3.51867        7.77350        1.71341
F          1.61369        3.17889        2.51746
F          0.26889        1.37030        3.56655
F          0.29188       -0.88279        2.68060
F          1.74500       -1.43627        0.66230
F          3.07360        0.22341       -0.34959
F          1.10354        4.62272        0.61817
F         -0.96442        4.93742       -0.70513
F         -1.28112        3.75060       -2.79280
F          0.53727        2.20215       -3.65963
F          2.53304        1.89633       -2.47483
F          4.44866        1.34668       -2.01873
F          6.68097        0.33781       -2.18673
F          8.34524        0.67774       -0.45683
F          7.77610        2.09547        1.57905
F          5.63140        3.07310        1.80651
F          2.77369        5.51870        1.93660
