69

B         10.10186       10.03016        9.77260
O         10.29440       10.38878       11.21574
O         10.71394       11.17664        9.06694
O         10.86180        8.79688        9.50614
O          8.66192        9.88406        9.49870
C          9.78990        9.63512       12.27060
C          9.98532       12.25096        8.56884
C         11.73992        8.58362        8.45742
C          8.14066        8.87478        8.70246
C          9.56048       10.61662       13.44358
C         10.77040        8.48176       12.66396
C          9.53182       13.22674        9.69308
C         10.88960       12.93652        7.51822
C         13.21044        8.91954        8.83708
C         11.62316        7.09354        8.03966
C          6.74394        8.45660        9.23202
C          8.06128        9.31726        7.21740
H          8.81348        9.16720       12.04468
H          9.05728       11.95178        8.04650
H         11.52342        9.19074        7.55912
H          8.75452        7.95466        8.71364
F          8.94310       10.04156       14.50502
F         10.74524       11.14272       13.88396
F          8.78842       11.65552       13.04286
F         10.49806        7.35946       11.95136
F         12.06264        8.82942       12.41372
F         10.70040        8.13966       13.98128
F         10.53052       13.44010       10.60742
F          9.16022       14.44480        9.22254
F          8.47546       12.71626       10.36734
F         10.25498       13.93376        6.85104
F         12.01526       13.46510        8.07474
F         11.28518       12.02116        6.59464
F         14.00940        8.94054        7.73798
F         13.75152        8.05334        9.73016
F         13.28750       10.16188        9.40042
F         12.51390        6.75726        7.06886
F         11.81206        6.24714        9.08334
F         10.37832        6.83980        7.54172
F          5.74952        9.32438        8.89770
F          6.75590        8.36528       10.58606
F          6.39288        7.23530        8.74068
F          7.47104        8.38302        6.42706
F          7.38968       10.48816        7.05272
F          9.31970        9.52260        6.72898
H         12.46723       11.73233       -0.05515
H         10.10212       11.88639       -0.00456
H          7.75078       10.70592        3.66871
O          8.79869       10.77558        1.92527
O         13.72002       10.41670        1.78114
H         14.85165       10.17224        3.45499
Na        11.11047        9.72349        3.87774
C         12.38520       10.64062       -0.18951
C         10.02917       10.79242       -0.12431
C          7.69063       10.27726        2.66540
C         14.80233        9.76932        2.44038
H         15.75621        9.96536        1.92619
H          6.73606       10.57302        2.20272
C         13.56834        9.95555        0.44293
C          8.80652       10.27934        0.59104
O         11.18693       10.15711        0.40871
H         14.47192       10.18617       -0.14738
H          7.90664       10.61964        0.05039
H         12.38697       10.42894       -1.27266
H          9.93256       10.57251       -1.20138
H          7.72134        9.17923        2.73829
H         14.64473        8.68110        2.48990
H         13.42207        8.86206        0.42822
H          8.80660        9.17608        0.59171
