73

B         10.10820        9.86940        9.90456
O         10.39402       10.46552       11.21140
O         10.49776       10.80012        8.84212
O         10.79036        8.58702        9.75488
O          8.67494        9.59404        9.83716
C         10.19140        9.89552       12.42654
C         10.06796       12.07092        8.61746
C         11.79516        8.20374        8.93252
C          7.99800        8.94952        8.85084
C          9.64048       10.68704       13.44500
C         10.51018        8.54862       12.70936
C          9.15036       12.73788        9.45942
C         10.56528       12.74334        7.49176
C         12.86112        9.05090        8.58446
C         11.76252        6.89476        8.43814
C          6.72522        8.45048        9.15550
C          8.52638        8.73810        7.55910
C          9.39210       10.14694       14.71026
C         10.27200        8.01730       13.97826
C          8.75032       14.04698        9.16920
C         10.16068       14.05092        7.20476
C         13.88006        8.57968        7.74674
C         12.77314        6.43190        7.59270
C          5.99350        7.73988        8.19998
C          7.78686        8.03488        6.60350
C          9.25396       14.70258        8.04338
C          9.70808        8.81258       14.97722
C         13.83318        7.27328        7.24934
C          6.52406        7.53208        6.92512
H          9.38686       11.72134       13.24728
H         10.95456        7.89972       11.97310
H          8.74092       12.25946       10.33756
H         11.26894       12.24870        6.83362
H         12.91976       10.05966        8.96954
H         10.94332        6.23718        8.70218
H          6.30982        8.59732       10.14462
H          9.50248        9.10694        7.27940
H          8.94176       15.71508        7.82058
H          9.51874        8.39480       15.95700
H          5.95766        6.97952        6.18692
H          8.95262       10.76186       15.48478
H         10.52526        6.98552       14.18658
H          8.04800       14.55446        9.81810
H         10.55004       14.55942        6.33188
H          8.19676        7.87466        5.61488
H          5.01756        7.34566        8.45148
H         14.70764        9.22568        7.48614
H         12.73298        5.42082        7.20836
Na         8.61042        6.33916       11.07256
H         14.58272        6.93096        6.62803
H          9.36392        1.18847       11.28748
H          7.04529        1.68206       11.26853
H          5.54998        5.91197       10.73246
O          6.26897        4.13774       11.42362
O         11.09299        3.09392       11.51481
H         12.51193        4.40790       10.88062
C          9.42983        1.57596       12.31796
C          7.12284        2.08129       12.29373
C          5.39010        5.24506       11.58314
C         12.35674        3.71733       11.71324
H         13.16973        2.97461       11.72397
H          4.33771        4.92083       11.59526
C         10.79302        2.17083       12.55615
C          6.13051        3.19875       12.48457
O          8.43715        2.57322       12.53603
H         11.53909        1.35761       12.57496
H          5.11152        2.77505       12.49070
H          9.28350        0.72953       13.01090
H          6.88297        1.26537       12.99694
H          5.60136        5.79058       12.51561
H         12.37920        4.27950       12.65928
H         10.81670        2.67707       13.53619
H          6.30070        3.69065       13.45733
