115
molecula
B      3.37721    3.07213    0.22750
C      3.83871    4.66252    0.21723
C      2.52048    1.93671    1.03669
C      2.07157    3.27810   -0.74667
Na     3.65560    3.76110    2.53859
C      4.76218    2.29345   -0.12872
C      4.64536    5.05718   -0.80493
C      5.12491    6.44724   -0.95496
C      4.74725    7.37642   -0.08032
C      3.84371    7.01297    1.02127
C      3.41361    5.74908    1.16042
C      1.72237    2.18946    2.09640
C      0.89533    1.13214    2.72022
C      0.90712   -0.11155    2.22953
C      1.74625   -0.42929    1.06910
C      2.50062    0.52250    0.51026
C      1.05817    4.08992   -0.32231
C     -0.18784    4.27952   -1.08318
C     -0.36695    3.62778   -2.23194
C      0.69308    2.73446   -2.72824
C      1.82913    2.57449   -2.04248
C      5.10035    1.54716   -1.20022
C      6.44520    0.93514   -1.31975
C      7.36037    1.12271   -0.36790
C      7.03323    1.93796    0.80887
C      5.81330    2.48159    0.92177
H      4.99050    4.37866   -1.57309
H      5.78135    6.70444   -1.77555
H      5.09362    8.40204   -0.18386
H      3.51867    7.77350    1.71341
H      2.73446    5.56742    1.97650
H      1.61369    3.17889    2.51746
H      0.26889    1.37030    3.56655
H      0.29188   -0.88279    2.68060
H      1.74500   -1.43627    0.66230
H      3.07360    0.22341   -0.34959
H      1.10354    4.62272    0.61817
H     -0.96442    4.93742   -0.70513
H     -1.28112    3.75060   -2.79280
H      0.53727    2.20215   -3.65963
H      2.53304    1.89633   -2.47483
H      4.44866    1.34668   -2.01873
H      6.68097    0.33781   -2.18673
H      8.34524    0.67774   -0.45683
H      7.77610    2.09547    1.57905
H      5.63140    3.07310    1.80651
C     -3.00616   -6.12908    1.45416
O     -1.84136   -5.20685    1.45931
H     -3.74130   -5.92157    0.55741
H     -2.45153   -7.08389    1.45408
H     -3.63891   -6.44751    2.34488
C     -1.39628   -3.85362    1.46189
C     -0.09874   -3.57595    1.48611
H     -1.38771   -2.95343    0.58542
H     -1.91848   -3.19419    2.33759
O      1.05481   -4.41857    1.35527
H     -0.09373   -2.96412    2.39611
H     -0.09011   -2.89687    0.62523
C      2.26014   -3.66136    1.50583
C      3.47386   -4.23226    1.46154
H      2.29508   -3.07146    2.42951
H      2.30380   -2.96413    0.66062
O      3.47579   -5.79026    1.44703
H      3.77330   -3.50819    0.56785
H      4.11306   -3.59613    2.34550
C      4.56035   -6.44534    1.40561
H      5.30017   -7.30495    2.27539
H      3.92351   -7.23660    1.39056
H      5.41679   -6.68643    0.49717
C     13.73626    0.03046   -4.09723
O     12.54742   -0.21601   -3.24096
H     14.71902    0.19207   -3.46817
H     13.67011   -0.87624   -4.72395
H     13.80199    0.70791   -5.00931
C     11.73490    0.25595   -2.17026
C     10.66800   -0.43334   -1.78567
H     11.91167    0.32728   -0.92838
H     11.37835    1.40574   -2.32919
O     10.19689   -1.73719   -2.15421
H      9.92124    0.35773   -1.92353
H     10.91482   -0.47938   -0.71829
C      8.95349   -2.03211   -1.50935
C      8.29112   -3.17949   -1.72335
H      8.18468   -1.26649   -1.66795
H      9.15904   -2.08334   -0.43346
O      8.85520   -4.06877   -2.87165
H      8.32701   -3.40861   -0.55766
H      7.08455   -2.80698   -1.73135
C      8.31620   -5.17689   -3.16940
H      7.57873   -5.72357   -4.26487
H      9.07588   -5.21045   -3.84293
H      8.29636   -6.32737   -2.62821
C     -7.08124    2.83465    0.47060
O     -5.91918    3.32138   -0.31680
H     -6.76890    2.43068    1.53216
H     -7.69500    3.75165    0.42949
H     -7.94360    2.18972    0.10242
C     -4.63666    3.01576   -0.85633
C     -3.97836    3.92001   -1.57066
H     -3.50264    2.86604   -0.33654
H     -4.63593    1.98493   -1.49804
O     -4.24064    5.30845   -1.81815
H     -3.85511    3.32740   -2.48503
H     -3.03632    3.87383   -1.01141
C     -3.26576    5.86161   -2.70836
C     -3.31731    7.13708   -3.12252
H     -3.15670    5.29950   -3.64352
H     -2.30347    5.82972   -2.18359
O     -4.61609    7.90833   -2.74052
H     -2.22573    7.31448   -2.68707
H     -2.94939    7.05347   -4.32762
C     -4.78282    9.11983   -3.07456
H     -5.62848    9.85654   -3.96051
H     -5.65346    8.99864   -2.56546
H     -4.30658   10.22600   -2.66656
